p cnf 1521 3765             
-6 -5 -121 0
121 -127 0
-5 122 0
-6 122 0
-122 -7 -123 0
123 -127 0
-7 124 0
-122 124 0
-124 -8 -125 0
125 -127 0
127 -133 0
-5 1 -128 0
128 -132 0
-6 2 -129 0
129 -132 0
-7 3 -130 0
130 -132 0
-8 4 -131 0
131 -132 0
132 -133 0
133 -1234 0
-10 -9 -134 0
134 -164 0
-9 135 0
-10 135 0
-135 -11 -136 0
136 -164 0
-11 137 0
-135 137 0
-137 -12 -138 0
138 -164 0
-12 139 0
-137 139 0
-139 -13 -140 0
140 -164 0
-13 141 0
-139 141 0
-141 -14 -142 0
142 -164 0
-14 143 0
-141 143 0
-143 -15 -144 0
144 -164 0
-15 145 0
-143 145 0
-145 -16 -146 0
146 -164 0
-16 147 0
-145 147 0
-147 -17 -148 0
148 -164 0
-17 149 0
-147 149 0
-149 -18 -150 0
150 -164 0
-18 151 0
-149 151 0
-151 -19 -152 0
152 -164 0
-19 153 0
-151 153 0
-153 -20 -154 0
154 -164 0
-20 155 0
-153 155 0
-155 -21 -156 0
156 -164 0
-21 157 0
-155 157 0
-157 -22 -158 0
158 -164 0
-22 159 0
-157 159 0
-159 -23 -160 0
160 -164 0
-23 161 0
-159 161 0
-161 -24 -162 0
162 -164 0
164 -1234 0
-26 -25 -165 0
165 -195 0
-25 166 0
-26 166 0
-166 -27 -167 0
167 -195 0
-27 168 0
-166 168 0
-168 -28 -169 0
169 -195 0
-28 170 0
-168 170 0
-170 -29 -171 0
171 -195 0
-29 172 0
-170 172 0
-172 -30 -173 0
173 -195 0
-30 174 0
-172 174 0
-174 -31 -175 0
175 -195 0
-31 176 0
-174 176 0
-176 -32 -177 0
177 -195 0
-32 178 0
-176 178 0
-178 -33 -179 0
179 -195 0
-33 180 0
-178 180 0
-180 -34 -181 0
181 -195 0
-34 182 0
-180 182 0
-182 -35 -183 0
183 -195 0
-35 184 0
-182 184 0
-184 -36 -185 0
185 -195 0
-36 186 0
-184 186 0
-186 -37 -187 0
187 -195 0
-37 188 0
-186 188 0
-188 -38 -189 0
189 -195 0
-38 190 0
-188 190 0
-190 -39 -191 0
191 -195 0
-39 192 0
-190 192 0
-192 -40 -193 0
193 -195 0
-1 195 -196 0
196 -293 0
-42 -41 -197 0
197 -227 0
-41 198 0
-42 198 0
-198 -43 -199 0
199 -227 0
-43 200 0
-198 200 0
-200 -44 -201 0
201 -227 0
-44 202 0
-200 202 0
-202 -45 -203 0
203 -227 0
-45 204 0
-202 204 0
-204 -46 -205 0
205 -227 0
-46 206 0
-204 206 0
-206 -47 -207 0
207 -227 0
-47 208 0
-206 208 0
-208 -48 -209 0
209 -227 0
-48 210 0
-208 210 0
-210 -49 -211 0
211 -227 0
-49 212 0
-210 212 0
-212 -50 -213 0
213 -227 0
-50 214 0
-212 214 0
-214 -51 -215 0
215 -227 0
-51 216 0
-214 216 0
-216 -52 -217 0
217 -227 0
-52 218 0
-216 218 0
-218 -53 -219 0
219 -227 0
-53 220 0
-218 220 0
-220 -54 -221 0
221 -227 0
-54 222 0
-220 222 0
-222 -55 -223 0
223 -227 0
-55 224 0
-222 224 0
-224 -56 -225 0
225 -227 0
-2 227 -228 0
228 -293 0
-58 -57 -229 0
229 -259 0
-57 230 0
-58 230 0
-230 -59 -231 0
231 -259 0
-59 232 0
-230 232 0
-232 -60 -233 0
233 -259 0
-60 234 0
-232 234 0
-234 -61 -235 0
235 -259 0
-61 236 0
-234 236 0
-236 -62 -237 0
237 -259 0
-62 238 0
-236 238 0
-238 -63 -239 0
239 -259 0
-63 240 0
-238 240 0
-240 -64 -241 0
241 -259 0
-64 242 0
-240 242 0
-242 -65 -243 0
243 -259 0
-65 244 0
-242 244 0
-244 -66 -245 0
245 -259 0
-66 246 0
-244 246 0
-246 -67 -247 0
247 -259 0
-67 248 0
-246 248 0
-248 -68 -249 0
249 -259 0
-68 250 0
-248 250 0
-250 -69 -251 0
251 -259 0
-69 252 0
-250 252 0
-252 -70 -253 0
253 -259 0
-70 254 0
-252 254 0
-254 -71 -255 0
255 -259 0
-71 256 0
-254 256 0
-256 -72 -257 0
257 -259 0
-3 259 -260 0
260 -293 0
-74 -73 -261 0
261 -291 0
-73 262 0
-74 262 0
-262 -75 -263 0
263 -291 0
-75 264 0
-262 264 0
-264 -76 -265 0
265 -291 0
-76 266 0
-264 266 0
-266 -77 -267 0
267 -291 0
-77 268 0
-266 268 0
-268 -78 -269 0
269 -291 0
-78 270 0
-268 270 0
-270 -79 -271 0
271 -291 0
-79 272 0
-270 272 0
-272 -80 -273 0
273 -291 0
-80 274 0
-272 274 0
-274 -81 -275 0
275 -291 0
-81 276 0
-274 276 0
-276 -82 -277 0
277 -291 0
-82 278 0
-276 278 0
-278 -83 -279 0
279 -291 0
-83 280 0
-278 280 0
-280 -84 -281 0
281 -291 0
-84 282 0
-280 282 0
-282 -85 -283 0
283 -291 0
-85 284 0
-282 284 0
-284 -86 -285 0
285 -291 0
-86 286 0
-284 286 0
-286 -87 -287 0
287 -291 0
-87 288 0
-286 288 0
-288 -88 -289 0
289 -291 0
-4 291 -292 0
292 -293 0
293 -1234 0
-25 294 0
-26 294 0
-27 294 0
-28 294 0
-29 294 0
-30 294 0
-31 294 0
-32 294 0
-33 294 0
-34 294 0
-35 294 0
-36 294 0
-37 294 0
-38 294 0
-39 294 0
-40 294 0
-294 1 -298 0
298 -302 0
-41 295 0
-42 295 0
-43 295 0
-44 295 0
-45 295 0
-46 295 0
-47 295 0
-48 295 0
-49 295 0
-50 295 0
-51 295 0
-52 295 0
-53 295 0
-54 295 0
-55 295 0
-56 295 0
-295 2 -299 0
299 -302 0
-57 296 0
-58 296 0
-59 296 0
-60 296 0
-61 296 0
-62 296 0
-63 296 0
-64 296 0
-65 296 0
-66 296 0
-67 296 0
-68 296 0
-69 296 0
-70 296 0
-71 296 0
-72 296 0
-296 3 -300 0
300 -302 0
-73 297 0
-74 297 0
-75 297 0
-76 297 0
-77 297 0
-78 297 0
-79 297 0
-80 297 0
-81 297 0
-82 297 0
-83 297 0
-84 297 0
-85 297 0
-86 297 0
-87 297 0
-88 297 0
-297 4 -301 0
301 -302 0
302 -1234 0
-90 -89 -303 0
303 -309 0
-89 304 0
-90 304 0
-304 -91 -305 0
305 -309 0
-91 306 0
-304 306 0
-306 -92 -307 0
307 -309 0
309 -315 0
-89 1 -310 0
310 -314 0
-90 2 -311 0
311 -314 0
-91 3 -312 0
312 -314 0
-92 4 -313 0
313 -314 0
314 -315 0
-1 315 -316 0
316 -359 0
-94 -93 -317 0
317 -323 0
-93 318 0
-94 318 0
-318 -95 -319 0
319 -323 0
-95 320 0
-318 320 0
-320 -96 -321 0
321 -323 0
323 -329 0
-93 1 -324 0
324 -328 0
-94 2 -325 0
325 -328 0
-95 3 -326 0
326 -328 0
-96 4 -327 0
327 -328 0
328 -329 0
-2 329 -330 0
330 -359 0
-98 -97 -331 0
331 -337 0
-97 332 0
-98 332 0
-332 -99 -333 0
333 -337 0
-99 334 0
-332 334 0
-334 -100 -335 0
335 -337 0
337 -343 0
-97 1 -338 0
338 -342 0
-98 2 -339 0
339 -342 0
-99 3 -340 0
340 -342 0
-100 4 -341 0
341 -342 0
342 -343 0
-3 343 -344 0
344 -359 0
-102 -101 -345 0
345 -351 0
-101 346 0
-102 346 0
-346 -103 -347 0
347 -351 0
-103 348 0
-346 348 0
-348 -104 -349 0
349 -351 0
351 -357 0
-101 1 -352 0
352 -356 0
-102 2 -353 0
353 -356 0
-103 3 -354 0
354 -356 0
-104 4 -355 0
355 -356 0
356 -357 0
-4 357 -358 0
358 -359 0
359 -1234 0
-92 308 0
-306 308 0
-308 1 -360 0
360 -364 0
-96 322 0
-320 322 0
-322 2 -361 0
361 -364 0
-100 336 0
-334 336 0
-336 3 -362 0
362 -364 0
-104 350 0
-348 350 0
-350 4 -363 0
363 -364 0
364 -1234 0
-106 -105 -365 0
365 -371 0
-105 366 0
-106 366 0
-366 -107 -367 0
367 -371 0
-107 368 0
-366 368 0
-368 -108 -369 0
369 -371 0
371 -377 0
-105 1 -372 0
372 -376 0
-106 2 -373 0
373 -376 0
-107 3 -374 0
374 -376 0
-108 4 -375 0
375 -376 0
376 -377 0
-1 377 -378 0
378 -421 0
-110 -109 -379 0
379 -385 0
-109 380 0
-110 380 0
-380 -111 -381 0
381 -385 0
-111 382 0
-380 382 0
-382 -112 -383 0
383 -385 0
385 -391 0
-109 1 -386 0
386 -390 0
-110 2 -387 0
387 -390 0
-111 3 -388 0
388 -390 0
-112 4 -389 0
389 -390 0
390 -391 0
-2 391 -392 0
392 -421 0
-114 -113 -393 0
393 -399 0
-113 394 0
-114 394 0
-394 -115 -395 0
395 -399 0
-115 396 0
-394 396 0
-396 -116 -397 0
397 -399 0
399 -405 0
-113 1 -400 0
400 -404 0
-114 2 -401 0
401 -404 0
-115 3 -402 0
402 -404 0
-116 4 -403 0
403 -404 0
404 -405 0
-3 405 -406 0
406 -421 0
-118 -117 -407 0
407 -413 0
-117 408 0
-118 408 0
-408 -119 -409 0
409 -413 0
-119 410 0
-408 410 0
-410 -120 -411 0
411 -413 0
413 -419 0
-117 1 -414 0
414 -418 0
-118 2 -415 0
415 -418 0
-119 3 -416 0
416 -418 0
-120 4 -417 0
417 -418 0
418 -419 0
-4 419 -420 0
420 -421 0
421 -1234 0
-108 370 0
-368 370 0
-370 1 -422 0
422 -426 0
-112 384 0
-382 384 0
-384 2 -423 0
423 -426 0
-116 398 0
-396 398 0
-398 3 -424 0
424 -426 0
-120 412 0
-410 412 0
-412 4 -425 0
425 -426 0
426 -1234 0
5 -611 0
-1 607 0
-89 427 0
-105 427 0
89 105 -427 0
-427 497 0
-90 428 0
-106 428 0
90 106 -428 0
428 -446 0
-93 431 0
-109 431 0
93 109 -431 0
431 -446 0
-428 -431 446 0
-446 497 0
-91 429 0
-107 429 0
91 107 -429 0
429 -450 0
-97 435 0
-113 435 0
97 113 -435 0
435 -450 0
-429 -435 450 0
-450 497 0
-92 430 0
-108 430 0
92 108 -430 0
430 -454 0
-101 439 0
-117 439 0
101 117 -439 0
439 -454 0
-430 -439 454 0
-454 497 0
427 446 450 454 -497 0
-497 579 0
-428 513 0
427 -443 0
428 -443 0
-427 -428 443 0
-443 498 0
428 -447 0
-94 432 0
-110 432 0
94 110 -432 0
432 -447 0
-428 -432 447 0
-447 498 0
429 -451 0
-98 436 0
-114 436 0
98 114 -436 0
436 -451 0
-429 -436 451 0
-451 498 0
430 -455 0
-102 440 0
-118 440 0
102 118 -440 0
440 -455 0
-430 -440 455 0
-455 498 0
443 447 451 455 -498 0
-498 513 0
428 498 -513 0
513 -528 0
-431 516 0
427 -458 0
431 -458 0
-427 -431 458 0
-458 501 0
431 -461 0
432 -461 0
-431 -432 461 0
-461 501 0
-95 433 0
-111 433 0
95 111 -433 0
433 -464 0
435 -464 0
-433 -435 464 0
-464 501 0
-96 434 0
-112 434 0
96 112 -434 0
434 -468 0
439 -468 0
-434 -439 468 0
-468 501 0
458 461 464 468 -501 0
-501 516 0
431 501 -516 0
516 -528 0
-513 -516 528 0
-528 579 0
-429 514 0
427 -444 0
429 -444 0
-427 -429 444 0
-444 499 0
428 -448 0
433 -448 0
-428 -433 448 0
-448 499 0
429 -452 0
-99 437 0
-115 437 0
99 115 -437 0
437 -452 0
-429 -437 452 0
-452 499 0
430 -456 0
-103 441 0
-119 441 0
103 119 -441 0
441 -456 0
-430 -441 456 0
-456 499 0
444 448 452 456 -499 0
-499 514 0
429 499 -514 0
514 -532 0
-435 519 0
427 -472 0
435 -472 0
-427 -435 472 0
-472 505 0
431 -475 0
436 -475 0
-431 -436 475 0
-475 505 0
435 -478 0
437 -478 0
-435 -437 478 0
-478 505 0
-100 438 0
-116 438 0
100 116 -438 0
438 -481 0
439 -481 0
-438 -439 481 0
-481 505 0
472 475 478 481 -505 0
-505 519 0
435 505 -519 0
519 -532 0
-514 -519 532 0
-532 579 0
-430 515 0
427 -445 0
430 -445 0
-427 -430 445 0
-445 500 0
428 -449 0
434 -449 0
-428 -434 449 0
-449 500 0
429 -453 0
438 -453 0
-429 -438 453 0
-453 500 0
430 -457 0
-104 442 0
-120 442 0
104 120 -442 0
442 -457 0
-430 -442 457 0
-457 500 0
445 449 453 457 -500 0
-500 515 0
430 500 -515 0
515 -536 0
-439 522 0
427 -485 0
439 -485 0
-427 -439 485 0
-485 509 0
431 -488 0
440 -488 0
-431 -440 488 0
-488 509 0
435 -491 0
441 -491 0
-435 -441 491 0
-491 509 0
439 -494 0
442 -494 0
-439 -442 494 0
-494 509 0
485 488 491 494 -509 0
-509 522 0
439 509 -522 0
522 -536 0
-515 -522 536 0
-536 579 0
497 528 532 536 -579 0
-579 607 0
1 579 -607 0
607 -611 0
-5 -607 611 0
-611 627 0
6 -615 0
-516 598 0
497 -540 0
516 -540 0
-497 -516 540 0
-540 583 0
-432 502 0
-446 502 0
433 -465 0
436 -465 0
-433 -436 465 0
-465 502 0
434 -469 0
440 -469 0
-434 -440 469 0
-469 502 0
432 446 465 469 -502 0
502 -543 0
516 -543 0
-502 -516 543 0
-543 583 0
-433 517 0
429 -459 0
431 -459 0
-429 -431 459 0
-459 503 0
432 -462 0
433 -462 0
-432 -433 462 0
-462 503 0
433 -466 0
437 -466 0
-433 -437 466 0
-466 503 0
434 -470 0
441 -470 0
-434 -441 470 0
-470 503 0
459 462 466 470 -503 0
-503 517 0
433 503 -517 0
517 -546 0
519 -546 0
-517 -519 546 0
-546 583 0
-434 518 0
430 -460 0
431 -460 0
-430 -431 460 0
-460 504 0
432 -463 0
434 -463 0
-432 -434 463 0
-463 504 0
433 -467 0
438 -467 0
-433 -438 467 0
-467 504 0
434 -471 0
442 -471 0
-434 -442 471 0
-471 504 0
460 463 467 471 -504 0
-504 518 0
434 504 -518 0
518 -550 0
522 -550 0
-518 -522 550 0
-550 583 0
540 543 546 550 -583 0
-583 598 0
516 583 -598 0
598 -615 0
-6 -598 615 0
-615 627 0
7 -619 0
-519 601 0
497 -554 0
519 -554 0
-497 -519 554 0
-554 587 0
516 -557 0
-436 520 0
428 -473 0
435 -473 0
-428 -435 473 0
-473 506 0
432 -476 0
436 -476 0
-432 -436 476 0
-476 506 0
436 -479 0
437 -479 0
-436 -437 479 0
-479 506 0
438 -482 0
440 -482 0
-438 -440 482 0
-482 506 0
473 476 479 482 -506 0
-506 520 0
436 506 -520 0
520 -557 0
-516 -520 557 0
-557 587 0
-437 507 0
-450 507 0
-465 507 0
438 -483 0
441 -483 0
-438 -441 483 0
-483 507 0
437 450 465 483 -507 0
507 -560 0
519 -560 0
-507 -519 560 0
-560 587 0
-438 521 0
430 -474 0
435 -474 0
-430 -435 474 0
-474 508 0
434 -477 0
436 -477 0
-434 -436 477 0
-477 508 0
437 -480 0
438 -480 0
-437 -438 480 0
-480 508 0
438 -484 0
442 -484 0
-438 -442 484 0
-484 508 0
474 477 480 484 -508 0
-508 521 0
438 508 -521 0
521 -563 0
522 -563 0
-521 -522 563 0
-563 587 0
554 557 560 563 -587 0
-587 601 0
519 587 -601 0
601 -619 0
-7 -601 619 0
-619 627 0
8 -623 0
-522 604 0
497 -567 0
522 -567 0
-497 -522 567 0
-567 591 0
516 -570 0
-440 523 0
428 -486 0
439 -486 0
-428 -439 486 0
-486 510 0
432 -489 0
440 -489 0
-432 -440 489 0
-489 510 0
436 -492 0
441 -492 0
-436 -441 492 0
-492 510 0
440 -495 0
442 -495 0
-440 -442 495 0
-495 510 0
486 489 492 495 -510 0
-510 523 0
440 510 -523 0
523 -570 0
-516 -523 570 0
-570 591 0
519 -573 0
-441 524 0
429 -487 0
439 -487 0
-429 -439 487 0
-487 511 0
433 -490 0
440 -490 0
-433 -440 490 0
-490 511 0
437 -493 0
441 -493 0
-437 -441 493 0
-493 511 0
441 -496 0
442 -496 0
-441 -442 496 0
-496 511 0
487 490 493 496 -511 0
-511 524 0
441 511 -524 0
524 -573 0
-519 -524 573 0
-573 591 0
-442 512 0
-454 512 0
-469 512 0
-483 512 0
442 454 469 483 -512 0
512 -576 0
522 -576 0
-512 -522 576 0
-576 591 0
567 570 573 576 -591 0
-591 604 0
522 591 -604 0
604 -623 0
-8 -604 623 0
-623 627 0
611 615 619 623 -627 0
-627 1 -631 0
631 -635 0
5 -612 0
-513 595 0
497 -525 0
513 -525 0
-497 -513 525 0
-525 580 0
502 -529 0
513 -529 0
-502 -513 529 0
-529 580 0
514 -533 0
520 -533 0
-514 -520 533 0
-533 580 0
515 -537 0
523 -537 0
-515 -523 537 0
-537 580 0
525 529 533 537 -580 0
-580 595 0
513 580 -595 0
595 -612 0
-5 -595 612 0
-612 628 0
6 -616 0
-2 608 0
-502 584 0
-528 584 0
517 -547 0
520 -547 0
-517 -520 547 0
-547 584 0
518 -551 0
523 -551 0
-518 -523 551 0
-551 584 0
502 528 547 551 -584 0
-584 608 0
2 584 -608 0
608 -616 0
-6 -608 616 0
-616 628 0
7 -620 0
-520 602 0
513 -555 0
519 -555 0
-513 -519 555 0
-555 588 0
502 -558 0
520 -558 0
-502 -520 558 0
-558 588 0
507 -561 0
520 -561 0
-507 -520 561 0
-561 588 0
521 -564 0
523 -564 0
-521 -523 564 0
-564 588 0
555 558 561 564 -588 0
-588 602 0
520 588 -602 0
602 -620 0
-7 -602 620 0
-620 628 0
8 -624 0
-523 605 0
513 -568 0
522 -568 0
-513 -522 568 0
-568 592 0
502 -571 0
523 -571 0
-502 -523 571 0
-571 592 0
520 -574 0
524 -574 0
-520 -524 574 0
-574 592 0
512 -577 0
523 -577 0
-512 -523 577 0
-577 592 0
568 571 574 577 -592 0
-592 605 0
523 592 -605 0
605 -624 0
-8 -605 624 0
-624 628 0
612 616 620 624 -628 0
-628 2 -632 0
632 -635 0
5 -613 0
-514 596 0
497 -526 0
514 -526 0
-497 -514 526 0
-526 581 0
513 -530 0
517 -530 0
-513 -517 530 0
-530 581 0
507 -534 0
514 -534 0
-507 -514 534 0
-534 581 0
515 -538 0
524 -538 0
-515 -524 538 0
-538 581 0
526 530 534 538 -581 0
-581 596 0
514 581 -596 0
596 -613 0
-5 -596 613 0
-613 629 0
6 -617 0
-517 599 0
514 -541 0
516 -541 0
-514 -516 541 0
-541 585 0
502 -544 0
517 -544 0
-502 -517 544 0
-544 585 0
507 -548 0
517 -548 0
-507 -517 548 0
-548 585 0
518 -552 0
524 -552 0
-518 -524 552 0
-552 585 0
541 544 548 552 -585 0
-585 599 0
517 585 -599 0
599 -617 0
-6 -599 617 0
-617 629 0
7 -621 0
-3 609 0
-507 589 0
-532 589 0
-547 589 0
521 -565 0
524 -565 0
-521 -524 565 0
-565 589 0
507 532 547 565 -589 0
-589 609 0
3 589 -609 0
609 -621 0
-7 -609 621 0
-621 629 0
8 -625 0
-524 606 0
514 -569 0
522 -569 0
-514 -522 569 0
-569 593 0
517 -572 0
523 -572 0
-517 -523 572 0
-572 593 0
507 -575 0
524 -575 0
-507 -524 575 0
-575 593 0
512 -578 0
524 -578 0
-512 -524 578 0
-578 593 0
569 572 575 578 -593 0
-593 606 0
524 593 -606 0
606 -625 0
-8 -606 625 0
-625 629 0
613 617 621 625 -629 0
-629 3 -633 0
633 -635 0
5 -614 0
-515 597 0
497 -527 0
515 -527 0
-497 -515 527 0
-527 582 0
513 -531 0
518 -531 0
-513 -518 531 0
-531 582 0
514 -535 0
521 -535 0
-514 -521 535 0
-535 582 0
512 -539 0
515 -539 0
-512 -515 539 0
-539 582 0
527 531 535 539 -582 0
-582 597 0
515 582 -597 0
597 -614 0
-5 -597 614 0
-614 630 0
6 -618 0
-518 600 0
515 -542 0
516 -542 0
-515 -516 542 0
-542 586 0
502 -545 0
518 -545 0
-502 -518 545 0
-545 586 0
517 -549 0
521 -549 0
-517 -521 549 0
-549 586 0
512 -553 0
518 -553 0
-512 -518 553 0
-553 586 0
542 545 549 553 -586 0
-586 600 0
518 586 -600 0
600 -618 0
-6 -600 618 0
-618 630 0
7 -622 0
-521 603 0
515 -556 0
519 -556 0
-515 -519 556 0
-556 590 0
518 -559 0
520 -559 0
-518 -520 559 0
-559 590 0
507 -562 0
521 -562 0
-507 -521 562 0
-562 590 0
512 -566 0
521 -566 0
-512 -521 566 0
-566 590 0
556 559 562 566 -590 0
-590 603 0
521 590 -603 0
603 -622 0
-7 -603 622 0
-622 630 0
8 -626 0
-4 610 0
-512 594 0
-536 594 0
-551 594 0
-565 594 0
512 536 551 565 -594 0
-594 610 0
4 594 -610 0
610 -626 0
-8 -610 626 0
-626 630 0
614 618 622 626 -630 0
-630 4 -634 0
634 -635 0
635 -641 0
-1 627 -636 0
636 -640 0
-2 628 -637 0
637 -640 0
-3 629 -638 0
638 -640 0
-4 630 -639 0
639 -640 0
640 -641 0
641 -1234 0
26 -647 0
28 -647 0
-26 -28 647 0
-27 -28 -644 0
27 28 -644 0
-28 28 -644 0
-27 28 644 0
27 -28 644 0
28 -28 644 0
-647 -644 -648 0
647 644 -648 0
-644 644 -648 0
-647 644 648 0
647 -644 648 0
644 -644 648 0
648 -683 0
30 -666 0
32 -666 0
-30 -32 666 0
-31 -32 -661 0
31 32 -661 0
-32 32 -661 0
-31 32 661 0
31 -32 661 0
32 -32 661 0
-666 -661 -667 0
666 661 -667 0
-661 661 -667 0
-666 661 667 0
666 -661 667 0
661 -661 667 0
667 -683 0
-648 -667 683 0
-683 685 0
-26 -28 -646 0
26 28 -646 0
-28 28 -646 0
-26 28 646 0
26 -28 646 0
28 -28 646 0
646 -680 0
-30 -32 -665 0
30 32 -665 0
-32 32 -665 0
-30 32 665 0
30 -32 665 0
32 -32 665 0
665 -680 0
-646 -665 680 0
680 -684 0
-648 -667 -681 0
648 667 -681 0
-667 667 -681 0
-648 667 681 0
648 -667 681 0
667 -667 681 0
681 -684 0
-680 -681 684 0
-684 685 0
683 684 -685 0
644 -649 0
647 -649 0
-644 -647 649 0
27 -645 0
28 -645 0
-27 -28 645 0
-649 -645 -650 0
649 645 -650 0
-645 645 -650 0
-649 645 650 0
649 -645 650 0
645 -645 650 0
661 -668 0
666 -668 0
-661 -666 668 0
-29 -30 -657 0
29 30 -657 0
-30 30 -657 0
-29 30 657 0
29 -30 657 0
30 -30 657 0
31 -662 0
32 -662 0
-31 -32 662 0
-662 -661 -663 0
662 661 -663 0
-661 661 -663 0
-662 661 663 0
662 -661 663 0
661 -661 663 0
-657 -663 -669 0
657 663 -669 0
-663 663 -669 0
-657 663 669 0
657 -663 669 0
663 -663 669 0
-668 -669 -670 0
668 669 -670 0
-669 669 -670 0
-668 669 670 0
668 -669 670 0
669 -669 670 0
-650 -670 -686 0
650 670 -686 0
-670 670 -686 0
-650 670 686 0
650 -670 686 0
670 -670 686 0
-685 -686 -687 0
685 686 -687 0
-686 686 -687 0
-685 686 687 0
685 -686 687 0
686 -686 687 0
687 -750 0
34 -699 0
36 -699 0
-34 -36 699 0
-35 -36 -696 0
35 36 -696 0
-36 36 -696 0
-35 36 696 0
35 -36 696 0
36 -36 696 0
-699 -696 -700 0
699 696 -700 0
-696 696 -700 0
-699 696 700 0
699 -696 700 0
696 -696 700 0
700 -728 0
38 -711 0
40 -711 0
-38 -40 711 0
-39 -40 -706 0
39 40 -706 0
-40 40 -706 0
-39 40 706 0
39 -40 706 0
40 -40 706 0
-711 -706 -712 0
711 706 -712 0
-706 706 -712 0
-711 706 712 0
711 -706 712 0
706 -706 712 0
712 -728 0
-700 -712 728 0
-728 730 0
-34 -36 -698 0
34 36 -698 0
-36 36 -698 0
-34 36 698 0
34 -36 698 0
36 -36 698 0
698 -725 0
-38 -40 -710 0
38 40 -710 0
-40 40 -710 0
-38 40 710 0
38 -40 710 0
40 -40 710 0
710 -725 0
-698 -710 725 0
725 -729 0
-700 -712 -726 0
700 712 -726 0
-712 712 -726 0
-700 712 726 0
700 -712 726 0
712 -712 726 0
726 -729 0
-725 -726 729 0
-729 730 0
728 729 -730 0
696 -701 0
699 -701 0
-696 -699 701 0
35 -697 0
36 -697 0
-35 -36 697 0
-701 -697 -702 0
701 697 -702 0
-697 697 -702 0
-701 697 702 0
701 -697 702 0
697 -697 702 0
706 -713 0
711 -713 0
-706 -711 713 0
-37 -38 -704 0
37 38 -704 0
-38 38 -704 0
-37 38 704 0
37 -38 704 0
38 -38 704 0
39 -707 0
40 -707 0
-39 -40 707 0
-707 -706 -708 0
707 706 -708 0
-706 706 -708 0
-707 706 708 0
707 -706 708 0
706 -706 708 0
-704 -708 -714 0
704 708 -714 0
-708 708 -714 0
-704 708 714 0
704 -708 714 0
708 -708 714 0
-713 -714 -715 0
713 714 -715 0
-714 714 -715 0
-713 714 715 0
713 -714 715 0
714 -714 715 0
-702 -715 -731 0
702 715 -731 0
-715 715 -731 0
-702 715 731 0
702 -715 731 0
715 -715 731 0
-730 -731 -732 0
730 731 -732 0
-731 731 -732 0
-730 731 732 0
730 -731 732 0
731 -731 732 0
732 -750 0
-687 -732 750 0
-750 752 0
-680 -681 -682 0
680 681 -682 0
-681 681 -682 0
-680 681 682 0
680 -681 682 0
681 -681 682 0
682 -745 0
-725 -726 -727 0
725 726 -727 0
-726 726 -727 0
-725 726 727 0
725 -726 727 0
726 -726 727 0
727 -745 0
-682 -727 745 0
-745 747 0
-646 -665 -679 0
646 665 -679 0
-665 665 -679 0
-646 665 679 0
646 -665 679 0
665 -665 679 0
679 -742 0
-698 -710 -724 0
698 710 -724 0
-710 710 -724 0
-698 710 724 0
698 -710 724 0
710 -710 724 0
724 -742 0
-679 -724 742 0
742 -746 0
-682 -727 -743 0
682 727 -743 0
-727 727 -743 0
-682 727 743 0
682 -727 743 0
727 -727 743 0
743 -746 0
-742 -743 746 0
-746 747 0
745 746 -747 0
747 -751 0
-687 -732 -748 0
687 732 -748 0
-732 732 -748 0
-687 732 748 0
687 -732 748 0
732 -732 748 0
748 -751 0
-747 -748 751 0
-751 752 0
750 751 -752 0
650 -688 0
670 -688 0
-650 -670 688 0
-688 690 0
685 -689 0
686 -689 0
-685 -686 689 0
-689 690 0
688 689 -690 0
645 -651 0
649 -651 0
-645 -649 651 0
-25 -26 -642 0
25 26 -642 0
-26 26 -642 0
-25 26 642 0
25 -26 642 0
26 -26 642 0
-642 -644 -652 0
642 644 -652 0
-644 644 -652 0
-642 644 652 0
642 -644 652 0
644 -644 652 0
-651 -652 -653 0
651 652 -653 0
-652 652 -653 0
-651 652 653 0
651 -652 653 0
652 -652 653 0
657 -671 0
663 -671 0
-657 -663 671 0
-671 673 0
668 -672 0
669 -672 0
-668 -669 672 0
-672 673 0
671 672 -673 0
29 -658 0
30 -658 0
-29 -30 658 0
-658 -657 -659 0
658 657 -659 0
-657 657 -659 0
-658 657 659 0
658 -657 659 0
657 -657 659 0
-659 -663 -674 0
659 663 -674 0
-663 663 -674 0
-659 663 674 0
659 -663 674 0
663 -663 674 0
-673 -674 -675 0
673 674 -675 0
-674 674 -675 0
-673 674 675 0
673 -674 675 0
674 -674 675 0
-653 -675 -691 0
653 675 -691 0
-675 675 -691 0
-653 675 691 0
653 -675 691 0
675 -675 691 0
-690 -691 -692 0
690 691 -692 0
-691 691 -692 0
-690 691 692 0
690 -691 692 0
691 -691 692 0
702 -733 0
715 -733 0
-702 -715 733 0
-733 735 0
730 -734 0
731 -734 0
-730 -731 734 0
-734 735 0
733 734 -735 0
697 -703 0
701 -703 0
-697 -701 703 0
704 -716 0
708 -716 0
-704 -708 716 0
-716 718 0
713 -717 0
714 -717 0
-713 -714 717 0
-717 718 0
716 717 -718 0
37 -705 0
38 -705 0
-37 -38 705 0
-705 -707 -719 0
705 707 -719 0
-707 707 -719 0
-705 707 719 0
705 -707 719 0
707 -707 719 0
-718 -719 -720 0
718 719 -720 0
-719 719 -720 0
-718 719 720 0
718 -719 720 0
719 -719 720 0
-703 -720 -736 0
703 720 -736 0
-720 720 -736 0
-703 720 736 0
703 -720 736 0
720 -720 736 0
-735 -736 -737 0
735 736 -737 0
-736 736 -737 0
-735 736 737 0
735 -736 737 0
736 -736 737 0
-692 -737 -753 0
692 737 -753 0
-737 737 -753 0
-692 737 753 0
692 -737 753 0
737 -737 753 0
-752 -753 -754 0
752 753 -754 0
-753 753 -754 0
-752 753 754 0
752 -753 754 0
753 -753 754 0
-747 -748 -749 0
747 748 -749 0
-748 748 -749 0
-747 748 749 0
747 -748 749 0
748 -748 749 0
-754 749 -758 0
758 -764 0
-749 -754 759 0
-742 -743 -744 0
742 743 -744 0
-743 743 -744 0
-742 743 744 0
742 -743 744 0
743 -743 744 0
-759 744 -760 0
760 -764 0
-744 -759 761 0
-679 -724 -741 0
679 724 -741 0
-724 724 -741 0
-679 724 741 0
679 -724 741 0
724 -724 741 0
-761 741 -762 0
762 -764 0
764 -766 0
-754 -749 -744 -741 -765 0
765 -766 0
766 -796 0
1 -768 0
2 -768 0
-1 -2 768 0
768 -775 0
3 -770 0
4 -770 0
-3 -4 770 0
770 -775 0
-768 -770 775 0
-775 777 0
-1 -2 -767 0
1 2 -767 0
-2 2 -767 0
-1 2 767 0
1 -2 767 0
2 -2 767 0
767 -772 0
-3 -4 -769 0
3 4 -769 0
-4 4 -769 0
-3 4 769 0
3 -4 769 0
4 -4 769 0
769 -772 0
-767 -769 772 0
772 -776 0
-768 -770 -773 0
768 770 -773 0
-770 770 -773 0
-768 770 773 0
768 -770 773 0
770 -770 773 0
773 -776 0
-772 -773 776 0
-776 777 0
775 776 -777 0
-749 777 -778 0
754 778 -779 0
779 -790 0
-749 -777 780 0
749 777 780 0
-777 777 780 0
754 -780 781 0
-772 -773 -774 0
772 773 -774 0
-773 773 -774 0
-772 773 774 0
772 -773 774 0
773 -773 774 0
-744 774 -782 0
-781 782 -783 0
783 -790 0
-744 -774 784 0
744 774 784 0
-774 774 784 0
-781 -784 785 0
-767 -769 -771 0
767 769 -771 0
-769 769 -771 0
-767 769 771 0
767 -769 771 0
769 -769 771 0
-741 771 -786 0
-785 786 -787 0
787 -790 0
790 -795 0
-741 -771 -791 0
741 771 -791 0
-771 771 -791 0
-744 -774 -792 0
744 774 -792 0
-774 774 -792 0
-749 -777 -793 0
749 777 -793 0
-777 777 -793 0
754 791 792 793 -794 0
794 -795 0
795 -796 0
-627 796 -797 0
797 -1233 0
42 -803 0
44 -803 0
-42 -44 803 0
-43 -44 -800 0
43 44 -800 0
-44 44 -800 0
-43 44 800 0
43 -44 800 0
44 -44 800 0
-803 -800 -804 0
803 800 -804 0
-800 800 -804 0
-803 800 804 0
803 -800 804 0
800 -800 804 0
804 -839 0
46 -822 0
48 -822 0
-46 -48 822 0
-47 -48 -817 0
47 48 -817 0
-48 48 -817 0
-47 48 817 0
47 -48 817 0
48 -48 817 0
-822 -817 -823 0
822 817 -823 0
-817 817 -823 0
-822 817 823 0
822 -817 823 0
817 -817 823 0
823 -839 0
-804 -823 839 0
-839 841 0
-42 -44 -802 0
42 44 -802 0
-44 44 -802 0
-42 44 802 0
42 -44 802 0
44 -44 802 0
802 -836 0
-46 -48 -821 0
46 48 -821 0
-48 48 -821 0
-46 48 821 0
46 -48 821 0
48 -48 821 0
821 -836 0
-802 -821 836 0
836 -840 0
-804 -823 -837 0
804 823 -837 0
-823 823 -837 0
-804 823 837 0
804 -823 837 0
823 -823 837 0
837 -840 0
-836 -837 840 0
-840 841 0
839 840 -841 0
800 -805 0
803 -805 0
-800 -803 805 0
43 -801 0
44 -801 0
-43 -44 801 0
-805 -801 -806 0
805 801 -806 0
-801 801 -806 0
-805 801 806 0
805 -801 806 0
801 -801 806 0
817 -824 0
822 -824 0
-817 -822 824 0
-45 -46 -813 0
45 46 -813 0
-46 46 -813 0
-45 46 813 0
45 -46 813 0
46 -46 813 0
47 -818 0
48 -818 0
-47 -48 818 0
-818 -817 -819 0
818 817 -819 0
-817 817 -819 0
-818 817 819 0
818 -817 819 0
817 -817 819 0
-813 -819 -825 0
813 819 -825 0
-819 819 -825 0
-813 819 825 0
813 -819 825 0
819 -819 825 0
-824 -825 -826 0
824 825 -826 0
-825 825 -826 0
-824 825 826 0
824 -825 826 0
825 -825 826 0
-806 -826 -842 0
806 826 -842 0
-826 826 -842 0
-806 826 842 0
806 -826 842 0
826 -826 842 0
-841 -842 -843 0
841 842 -843 0
-842 842 -843 0
-841 842 843 0
841 -842 843 0
842 -842 843 0
843 -906 0
50 -855 0
52 -855 0
-50 -52 855 0
-51 -52 -852 0
51 52 -852 0
-52 52 -852 0
-51 52 852 0
51 -52 852 0
52 -52 852 0
-855 -852 -856 0
855 852 -856 0
-852 852 -856 0
-855 852 856 0
855 -852 856 0
852 -852 856 0
856 -884 0
54 -867 0
56 -867 0
-54 -56 867 0
-55 -56 -862 0
55 56 -862 0
-56 56 -862 0
-55 56 862 0
55 -56 862 0
56 -56 862 0
-867 -862 -868 0
867 862 -868 0
-862 862 -868 0
-867 862 868 0
867 -862 868 0
862 -862 868 0
868 -884 0
-856 -868 884 0
-884 886 0
-50 -52 -854 0
50 52 -854 0
-52 52 -854 0
-50 52 854 0
50 -52 854 0
52 -52 854 0
854 -881 0
-54 -56 -866 0
54 56 -866 0
-56 56 -866 0
-54 56 866 0
54 -56 866 0
56 -56 866 0
866 -881 0
-854 -866 881 0
881 -885 0
-856 -868 -882 0
856 868 -882 0
-868 868 -882 0
-856 868 882 0
856 -868 882 0
868 -868 882 0
882 -885 0
-881 -882 885 0
-885 886 0
884 885 -886 0
852 -857 0
855 -857 0
-852 -855 857 0
51 -853 0
52 -853 0
-51 -52 853 0
-857 -853 -858 0
857 853 -858 0
-853 853 -858 0
-857 853 858 0
857 -853 858 0
853 -853 858 0
862 -869 0
867 -869 0
-862 -867 869 0
-53 -54 -860 0
53 54 -860 0
-54 54 -860 0
-53 54 860 0
53 -54 860 0
54 -54 860 0
55 -863 0
56 -863 0
-55 -56 863 0
-863 -862 -864 0
863 862 -864 0
-862 862 -864 0
-863 862 864 0
863 -862 864 0
862 -862 864 0
-860 -864 -870 0
860 864 -870 0
-864 864 -870 0
-860 864 870 0
860 -864 870 0
864 -864 870 0
-869 -870 -871 0
869 870 -871 0
-870 870 -871 0
-869 870 871 0
869 -870 871 0
870 -870 871 0
-858 -871 -887 0
858 871 -887 0
-871 871 -887 0
-858 871 887 0
858 -871 887 0
871 -871 887 0
-886 -887 -888 0
886 887 -888 0
-887 887 -888 0
-886 887 888 0
886 -887 888 0
887 -887 888 0
888 -906 0
-843 -888 906 0
-906 908 0
-836 -837 -838 0
836 837 -838 0
-837 837 -838 0
-836 837 838 0
836 -837 838 0
837 -837 838 0
838 -901 0
-881 -882 -883 0
881 882 -883 0
-882 882 -883 0
-881 882 883 0
881 -882 883 0
882 -882 883 0
883 -901 0
-838 -883 901 0
-901 903 0
-802 -821 -835 0
802 821 -835 0
-821 821 -835 0
-802 821 835 0
802 -821 835 0
821 -821 835 0
835 -898 0
-854 -866 -880 0
854 866 -880 0
-866 866 -880 0
-854 866 880 0
854 -866 880 0
866 -866 880 0
880 -898 0
-835 -880 898 0
898 -902 0
-838 -883 -899 0
838 883 -899 0
-883 883 -899 0
-838 883 899 0
838 -883 899 0
883 -883 899 0
899 -902 0
-898 -899 902 0
-902 903 0
901 902 -903 0
903 -907 0
-843 -888 -904 0
843 888 -904 0
-888 888 -904 0
-843 888 904 0
843 -888 904 0
888 -888 904 0
904 -907 0
-903 -904 907 0
-907 908 0
906 907 -908 0
806 -844 0
826 -844 0
-806 -826 844 0
-844 846 0
841 -845 0
842 -845 0
-841 -842 845 0
-845 846 0
844 845 -846 0
801 -807 0
805 -807 0
-801 -805 807 0
-41 -42 -798 0
41 42 -798 0
-42 42 -798 0
-41 42 798 0
41 -42 798 0
42 -42 798 0
-798 -800 -808 0
798 800 -808 0
-800 800 -808 0
-798 800 808 0
798 -800 808 0
800 -800 808 0
-807 -808 -809 0
807 808 -809 0
-808 808 -809 0
-807 808 809 0
807 -808 809 0
808 -808 809 0
813 -827 0
819 -827 0
-813 -819 827 0
-827 829 0
824 -828 0
825 -828 0
-824 -825 828 0
-828 829 0
827 828 -829 0
45 -814 0
46 -814 0
-45 -46 814 0
-814 -813 -815 0
814 813 -815 0
-813 813 -815 0
-814 813 815 0
814 -813 815 0
813 -813 815 0
-815 -819 -830 0
815 819 -830 0
-819 819 -830 0
-815 819 830 0
815 -819 830 0
819 -819 830 0
-829 -830 -831 0
829 830 -831 0
-830 830 -831 0
-829 830 831 0
829 -830 831 0
830 -830 831 0
-809 -831 -847 0
809 831 -847 0
-831 831 -847 0
-809 831 847 0
809 -831 847 0
831 -831 847 0
-846 -847 -848 0
846 847 -848 0
-847 847 -848 0
-846 847 848 0
846 -847 848 0
847 -847 848 0
858 -889 0
871 -889 0
-858 -871 889 0
-889 891 0
886 -890 0
887 -890 0
-886 -887 890 0
-890 891 0
889 890 -891 0
853 -859 0
857 -859 0
-853 -857 859 0
860 -872 0
864 -872 0
-860 -864 872 0
-872 874 0
869 -873 0
870 -873 0
-869 -870 873 0
-873 874 0
872 873 -874 0
53 -861 0
54 -861 0
-53 -54 861 0
-861 -863 -875 0
861 863 -875 0
-863 863 -875 0
-861 863 875 0
861 -863 875 0
863 -863 875 0
-874 -875 -876 0
874 875 -876 0
-875 875 -876 0
-874 875 876 0
874 -875 876 0
875 -875 876 0
-859 -876 -892 0
859 876 -892 0
-876 876 -892 0
-859 876 892 0
859 -876 892 0
876 -876 892 0
-891 -892 -893 0
891 892 -893 0
-892 892 -893 0
-891 892 893 0
891 -892 893 0
892 -892 893 0
-848 -893 -909 0
848 893 -909 0
-893 893 -909 0
-848 893 909 0
848 -893 909 0
893 -893 909 0
-908 -909 -910 0
908 909 -910 0
-909 909 -910 0
-908 909 910 0
908 -909 910 0
909 -909 910 0
-903 -904 -905 0
903 904 -905 0
-904 904 -905 0
-903 904 905 0
903 -904 905 0
904 -904 905 0
-910 905 -914 0
914 -920 0
-905 -910 915 0
-898 -899 -900 0
898 899 -900 0
-899 899 -900 0
-898 899 900 0
898 -899 900 0
899 -899 900 0
-915 900 -916 0
916 -920 0
-900 -915 917 0
-835 -880 -897 0
835 880 -897 0
-880 880 -897 0
-835 880 897 0
835 -880 897 0
880 -880 897 0
-917 897 -918 0
918 -920 0
920 -922 0
-910 -905 -900 -897 -921 0
921 -922 0
922 -941 0
-905 777 -923 0
910 923 -924 0
924 -935 0
-905 -777 925 0
905 777 925 0
-777 777 925 0
910 -925 926 0
-900 774 -927 0
-926 927 -928 0
928 -935 0
-900 -774 929 0
900 774 929 0
-774 774 929 0
-926 -929 930 0
-897 771 -931 0
-930 931 -932 0
932 -935 0
935 -940 0
-897 -771 -936 0
897 771 -936 0
-771 771 -936 0
-900 -774 -937 0
900 774 -937 0
-774 774 -937 0
-905 -777 -938 0
905 777 -938 0
-777 777 -938 0
910 936 937 938 -939 0
939 -940 0
940 -941 0
-628 941 -942 0
942 -1233 0
58 -948 0
60 -948 0
-58 -60 948 0
-59 -60 -945 0
59 60 -945 0
-60 60 -945 0
-59 60 945 0
59 -60 945 0
60 -60 945 0
-948 -945 -949 0
948 945 -949 0
-945 945 -949 0
-948 945 949 0
948 -945 949 0
945 -945 949 0
949 -984 0
62 -967 0
64 -967 0
-62 -64 967 0
-63 -64 -962 0
63 64 -962 0
-64 64 -962 0
-63 64 962 0
63 -64 962 0
64 -64 962 0
-967 -962 -968 0
967 962 -968 0
-962 962 -968 0
-967 962 968 0
967 -962 968 0
962 -962 968 0
968 -984 0
-949 -968 984 0
-984 986 0
-58 -60 -947 0
58 60 -947 0
-60 60 -947 0
-58 60 947 0
58 -60 947 0
60 -60 947 0
947 -981 0
-62 -64 -966 0
62 64 -966 0
-64 64 -966 0
-62 64 966 0
62 -64 966 0
64 -64 966 0
966 -981 0
-947 -966 981 0
981 -985 0
-949 -968 -982 0
949 968 -982 0
-968 968 -982 0
-949 968 982 0
949 -968 982 0
968 -968 982 0
982 -985 0
-981 -982 985 0
-985 986 0
984 985 -986 0
945 -950 0
948 -950 0
-945 -948 950 0
59 -946 0
60 -946 0
-59 -60 946 0
-950 -946 -951 0
950 946 -951 0
-946 946 -951 0
-950 946 951 0
950 -946 951 0
946 -946 951 0
962 -969 0
967 -969 0
-962 -967 969 0
-61 -62 -958 0
61 62 -958 0
-62 62 -958 0
-61 62 958 0
61 -62 958 0
62 -62 958 0
63 -963 0
64 -963 0
-63 -64 963 0
-963 -962 -964 0
963 962 -964 0
-962 962 -964 0
-963 962 964 0
963 -962 964 0
962 -962 964 0
-958 -964 -970 0
958 964 -970 0
-964 964 -970 0
-958 964 970 0
958 -964 970 0
964 -964 970 0
-969 -970 -971 0
969 970 -971 0
-970 970 -971 0
-969 970 971 0
969 -970 971 0
970 -970 971 0
-951 -971 -987 0
951 971 -987 0
-971 971 -987 0
-951 971 987 0
951 -971 987 0
971 -971 987 0
-986 -987 -988 0
986 987 -988 0
-987 987 -988 0
-986 987 988 0
986 -987 988 0
987 -987 988 0
988 -1051 0
66 -1000 0
68 -1000 0
-66 -68 1000 0
-67 -68 -997 0
67 68 -997 0
-68 68 -997 0
-67 68 997 0
67 -68 997 0
68 -68 997 0
-1000 -997 -1001 0
1000 997 -1001 0
-997 997 -1001 0
-1000 997 1001 0
1000 -997 1001 0
997 -997 1001 0
1001 -1029 0
70 -1012 0
72 -1012 0
-70 -72 1012 0
-71 -72 -1007 0
71 72 -1007 0
-72 72 -1007 0
-71 72 1007 0
71 -72 1007 0
72 -72 1007 0
-1012 -1007 -1013 0
1012 1007 -1013 0
-1007 1007 -1013 0
-1012 1007 1013 0
1012 -1007 1013 0
1007 -1007 1013 0
1013 -1029 0
-1001 -1013 1029 0
-1029 1031 0
-66 -68 -999 0
66 68 -999 0
-68 68 -999 0
-66 68 999 0
66 -68 999 0
68 -68 999 0
999 -1026 0
-70 -72 -1011 0
70 72 -1011 0
-72 72 -1011 0
-70 72 1011 0
70 -72 1011 0
72 -72 1011 0
1011 -1026 0
-999 -1011 1026 0
1026 -1030 0
-1001 -1013 -1027 0
1001 1013 -1027 0
-1013 1013 -1027 0
-1001 1013 1027 0
1001 -1013 1027 0
1013 -1013 1027 0
1027 -1030 0
-1026 -1027 1030 0
-1030 1031 0
1029 1030 -1031 0
997 -1002 0
1000 -1002 0
-997 -1000 1002 0
67 -998 0
68 -998 0
-67 -68 998 0
-1002 -998 -1003 0
1002 998 -1003 0
-998 998 -1003 0
-1002 998 1003 0
1002 -998 1003 0
998 -998 1003 0
1007 -1014 0
1012 -1014 0
-1007 -1012 1014 0
-69 -70 -1005 0
69 70 -1005 0
-70 70 -1005 0
-69 70 1005 0
69 -70 1005 0
70 -70 1005 0
71 -1008 0
72 -1008 0
-71 -72 1008 0
-1008 -1007 -1009 0
1008 1007 -1009 0
-1007 1007 -1009 0
-1008 1007 1009 0
1008 -1007 1009 0
1007 -1007 1009 0
-1005 -1009 -1015 0
1005 1009 -1015 0
-1009 1009 -1015 0
-1005 1009 1015 0
1005 -1009 1015 0
1009 -1009 1015 0
-1014 -1015 -1016 0
1014 1015 -1016 0
-1015 1015 -1016 0
-1014 1015 1016 0
1014 -1015 1016 0
1015 -1015 1016 0
-1003 -1016 -1032 0
1003 1016 -1032 0
-1016 1016 -1032 0
-1003 1016 1032 0
1003 -1016 1032 0
1016 -1016 1032 0
-1031 -1032 -1033 0
1031 1032 -1033 0
-1032 1032 -1033 0
-1031 1032 1033 0
1031 -1032 1033 0
1032 -1032 1033 0
1033 -1051 0
-988 -1033 1051 0
-1051 1053 0
-981 -982 -983 0
981 982 -983 0
-982 982 -983 0
-981 982 983 0
981 -982 983 0
982 -982 983 0
983 -1046 0
-1026 -1027 -1028 0
1026 1027 -1028 0
-1027 1027 -1028 0
-1026 1027 1028 0
1026 -1027 1028 0
1027 -1027 1028 0
1028 -1046 0
-983 -1028 1046 0
-1046 1048 0
-947 -966 -980 0
947 966 -980 0
-966 966 -980 0
-947 966 980 0
947 -966 980 0
966 -966 980 0
980 -1043 0
-999 -1011 -1025 0
999 1011 -1025 0
-1011 1011 -1025 0
-999 1011 1025 0
999 -1011 1025 0
1011 -1011 1025 0
1025 -1043 0
-980 -1025 1043 0
1043 -1047 0
-983 -1028 -1044 0
983 1028 -1044 0
-1028 1028 -1044 0
-983 1028 1044 0
983 -1028 1044 0
1028 -1028 1044 0
1044 -1047 0
-1043 -1044 1047 0
-1047 1048 0
1046 1047 -1048 0
1048 -1052 0
-988 -1033 -1049 0
988 1033 -1049 0
-1033 1033 -1049 0
-988 1033 1049 0
988 -1033 1049 0
1033 -1033 1049 0
1049 -1052 0
-1048 -1049 1052 0
-1052 1053 0
1051 1052 -1053 0
951 -989 0
971 -989 0
-951 -971 989 0
-989 991 0
986 -990 0
987 -990 0
-986 -987 990 0
-990 991 0
989 990 -991 0
946 -952 0
950 -952 0
-946 -950 952 0
-57 -58 -943 0
57 58 -943 0
-58 58 -943 0
-57 58 943 0
57 -58 943 0
58 -58 943 0
-943 -945 -953 0
943 945 -953 0
-945 945 -953 0
-943 945 953 0
943 -945 953 0
945 -945 953 0
-952 -953 -954 0
952 953 -954 0
-953 953 -954 0
-952 953 954 0
952 -953 954 0
953 -953 954 0
958 -972 0
964 -972 0
-958 -964 972 0
-972 974 0
969 -973 0
970 -973 0
-969 -970 973 0
-973 974 0
972 973 -974 0
61 -959 0
62 -959 0
-61 -62 959 0
-959 -958 -960 0
959 958 -960 0
-958 958 -960 0
-959 958 960 0
959 -958 960 0
958 -958 960 0
-960 -964 -975 0
960 964 -975 0
-964 964 -975 0
-960 964 975 0
960 -964 975 0
964 -964 975 0
-974 -975 -976 0
974 975 -976 0
-975 975 -976 0
-974 975 976 0
974 -975 976 0
975 -975 976 0
-954 -976 -992 0
954 976 -992 0
-976 976 -992 0
-954 976 992 0
954 -976 992 0
976 -976 992 0
-991 -992 -993 0
991 992 -993 0
-992 992 -993 0
-991 992 993 0
991 -992 993 0
992 -992 993 0
1003 -1034 0
1016 -1034 0
-1003 -1016 1034 0
-1034 1036 0
1031 -1035 0
1032 -1035 0
-1031 -1032 1035 0
-1035 1036 0
1034 1035 -1036 0
998 -1004 0
1002 -1004 0
-998 -1002 1004 0
1005 -1017 0
1009 -1017 0
-1005 -1009 1017 0
-1017 1019 0
1014 -1018 0
1015 -1018 0
-1014 -1015 1018 0
-1018 1019 0
1017 1018 -1019 0
69 -1006 0
70 -1006 0
-69 -70 1006 0
-1006 -1008 -1020 0
1006 1008 -1020 0
-1008 1008 -1020 0
-1006 1008 1020 0
1006 -1008 1020 0
1008 -1008 1020 0
-1019 -1020 -1021 0
1019 1020 -1021 0
-1020 1020 -1021 0
-1019 1020 1021 0
1019 -1020 1021 0
1020 -1020 1021 0
-1004 -1021 -1037 0
1004 1021 -1037 0
-1021 1021 -1037 0
-1004 1021 1037 0
1004 -1021 1037 0
1021 -1021 1037 0
-1036 -1037 -1038 0
1036 1037 -1038 0
-1037 1037 -1038 0
-1036 1037 1038 0
1036 -1037 1038 0
1037 -1037 1038 0
-993 -1038 -1054 0
993 1038 -1054 0
-1038 1038 -1054 0
-993 1038 1054 0
993 -1038 1054 0
1038 -1038 1054 0
-1053 -1054 -1055 0
1053 1054 -1055 0
-1054 1054 -1055 0
-1053 1054 1055 0
1053 -1054 1055 0
1054 -1054 1055 0
-1048 -1049 -1050 0
1048 1049 -1050 0
-1049 1049 -1050 0
-1048 1049 1050 0
1048 -1049 1050 0
1049 -1049 1050 0
-1055 1050 -1059 0
1059 -1065 0
-1050 -1055 1060 0
-1043 -1044 -1045 0
1043 1044 -1045 0
-1044 1044 -1045 0
-1043 1044 1045 0
1043 -1044 1045 0
1044 -1044 1045 0
-1060 1045 -1061 0
1061 -1065 0
-1045 -1060 1062 0
-980 -1025 -1042 0
980 1025 -1042 0
-1025 1025 -1042 0
-980 1025 1042 0
980 -1025 1042 0
1025 -1025 1042 0
-1062 1042 -1063 0
1063 -1065 0
1065 -1067 0
-1055 -1050 -1045 -1042 -1066 0
1066 -1067 0
1067 -1086 0
-1050 777 -1068 0
1055 1068 -1069 0
1069 -1080 0
-1050 -777 1070 0
1050 777 1070 0
-777 777 1070 0
1055 -1070 1071 0
-1045 774 -1072 0
-1071 1072 -1073 0
1073 -1080 0
-1045 -774 1074 0
1045 774 1074 0
-774 774 1074 0
-1071 -1074 1075 0
-1042 771 -1076 0
-1075 1076 -1077 0
1077 -1080 0
1080 -1085 0
-1042 -771 -1081 0
1042 771 -1081 0
-771 771 -1081 0
-1045 -774 -1082 0
1045 774 -1082 0
-774 774 -1082 0
-1050 -777 -1083 0
1050 777 -1083 0
-777 777 -1083 0
1055 1081 1082 1083 -1084 0
1084 -1085 0
1085 -1086 0
-629 1086 -1087 0
1087 -1233 0
74 -1093 0
76 -1093 0
-74 -76 1093 0
-75 -76 -1090 0
75 76 -1090 0
-76 76 -1090 0
-75 76 1090 0
75 -76 1090 0
76 -76 1090 0
-1093 -1090 -1094 0
1093 1090 -1094 0
-1090 1090 -1094 0
-1093 1090 1094 0
1093 -1090 1094 0
1090 -1090 1094 0
1094 -1129 0
78 -1112 0
80 -1112 0
-78 -80 1112 0
-79 -80 -1107 0
79 80 -1107 0
-80 80 -1107 0
-79 80 1107 0
79 -80 1107 0
80 -80 1107 0
-1112 -1107 -1113 0
1112 1107 -1113 0
-1107 1107 -1113 0
-1112 1107 1113 0
1112 -1107 1113 0
1107 -1107 1113 0
1113 -1129 0
-1094 -1113 1129 0
-1129 1131 0
-74 -76 -1092 0
74 76 -1092 0
-76 76 -1092 0
-74 76 1092 0
74 -76 1092 0
76 -76 1092 0
1092 -1126 0
-78 -80 -1111 0
78 80 -1111 0
-80 80 -1111 0
-78 80 1111 0
78 -80 1111 0
80 -80 1111 0
1111 -1126 0
-1092 -1111 1126 0
1126 -1130 0
-1094 -1113 -1127 0
1094 1113 -1127 0
-1113 1113 -1127 0
-1094 1113 1127 0
1094 -1113 1127 0
1113 -1113 1127 0
1127 -1130 0
-1126 -1127 1130 0
-1130 1131 0
1129 1130 -1131 0
1090 -1095 0
1093 -1095 0
-1090 -1093 1095 0
75 -1091 0
76 -1091 0
-75 -76 1091 0
-1095 -1091 -1096 0
1095 1091 -1096 0
-1091 1091 -1096 0
-1095 1091 1096 0
1095 -1091 1096 0
1091 -1091 1096 0
1107 -1114 0
1112 -1114 0
-1107 -1112 1114 0
-77 -78 -1103 0
77 78 -1103 0
-78 78 -1103 0
-77 78 1103 0
77 -78 1103 0
78 -78 1103 0
79 -1108 0
80 -1108 0
-79 -80 1108 0
-1108 -1107 -1109 0
1108 1107 -1109 0
-1107 1107 -1109 0
-1108 1107 1109 0
1108 -1107 1109 0
1107 -1107 1109 0
-1103 -1109 -1115 0
1103 1109 -1115 0
-1109 1109 -1115 0
-1103 1109 1115 0
1103 -1109 1115 0
1109 -1109 1115 0
-1114 -1115 -1116 0
1114 1115 -1116 0
-1115 1115 -1116 0
-1114 1115 1116 0
1114 -1115 1116 0
1115 -1115 1116 0
-1096 -1116 -1132 0
1096 1116 -1132 0
-1116 1116 -1132 0
-1096 1116 1132 0
1096 -1116 1132 0
1116 -1116 1132 0
-1131 -1132 -1133 0
1131 1132 -1133 0
-1132 1132 -1133 0
-1131 1132 1133 0
1131 -1132 1133 0
1132 -1132 1133 0
1133 -1196 0
82 -1145 0
84 -1145 0
-82 -84 1145 0
-83 -84 -1142 0
83 84 -1142 0
-84 84 -1142 0
-83 84 1142 0
83 -84 1142 0
84 -84 1142 0
-1145 -1142 -1146 0
1145 1142 -1146 0
-1142 1142 -1146 0
-1145 1142 1146 0
1145 -1142 1146 0
1142 -1142 1146 0
1146 -1174 0
86 -1157 0
88 -1157 0
-86 -88 1157 0
-87 -88 -1152 0
87 88 -1152 0
-88 88 -1152 0
-87 88 1152 0
87 -88 1152 0
88 -88 1152 0
-1157 -1152 -1158 0
1157 1152 -1158 0
-1152 1152 -1158 0
-1157 1152 1158 0
1157 -1152 1158 0
1152 -1152 1158 0
1158 -1174 0
-1146 -1158 1174 0
-1174 1176 0
-82 -84 -1144 0
82 84 -1144 0
-84 84 -1144 0
-82 84 1144 0
82 -84 1144 0
84 -84 1144 0
1144 -1171 0
-86 -88 -1156 0
86 88 -1156 0
-88 88 -1156 0
-86 88 1156 0
86 -88 1156 0
88 -88 1156 0
1156 -1171 0
-1144 -1156 1171 0
1171 -1175 0
-1146 -1158 -1172 0
1146 1158 -1172 0
-1158 1158 -1172 0
-1146 1158 1172 0
1146 -1158 1172 0
1158 -1158 1172 0
1172 -1175 0
-1171 -1172 1175 0
-1175 1176 0
1174 1175 -1176 0
1142 -1147 0
1145 -1147 0
-1142 -1145 1147 0
83 -1143 0
84 -1143 0
-83 -84 1143 0
-1147 -1143 -1148 0
1147 1143 -1148 0
-1143 1143 -1148 0
-1147 1143 1148 0
1147 -1143 1148 0
1143 -1143 1148 0
1152 -1159 0
1157 -1159 0
-1152 -1157 1159 0
-85 -86 -1150 0
85 86 -1150 0
-86 86 -1150 0
-85 86 1150 0
85 -86 1150 0
86 -86 1150 0
87 -1153 0
88 -1153 0
-87 -88 1153 0
-1153 -1152 -1154 0
1153 1152 -1154 0
-1152 1152 -1154 0
-1153 1152 1154 0
1153 -1152 1154 0
1152 -1152 1154 0
-1150 -1154 -1160 0
1150 1154 -1160 0
-1154 1154 -1160 0
-1150 1154 1160 0
1150 -1154 1160 0
1154 -1154 1160 0
-1159 -1160 -1161 0
1159 1160 -1161 0
-1160 1160 -1161 0
-1159 1160 1161 0
1159 -1160 1161 0
1160 -1160 1161 0
-1148 -1161 -1177 0
1148 1161 -1177 0
-1161 1161 -1177 0
-1148 1161 1177 0
1148 -1161 1177 0
1161 -1161 1177 0
-1176 -1177 -1178 0
1176 1177 -1178 0
-1177 1177 -1178 0
-1176 1177 1178 0
1176 -1177 1178 0
1177 -1177 1178 0
1178 -1196 0
-1133 -1178 1196 0
-1196 1198 0
-1126 -1127 -1128 0
1126 1127 -1128 0
-1127 1127 -1128 0
-1126 1127 1128 0
1126 -1127 1128 0
1127 -1127 1128 0
1128 -1191 0
-1171 -1172 -1173 0
1171 1172 -1173 0
-1172 1172 -1173 0
-1171 1172 1173 0
1171 -1172 1173 0
1172 -1172 1173 0
1173 -1191 0
-1128 -1173 1191 0
-1191 1193 0
-1092 -1111 -1125 0
1092 1111 -1125 0
-1111 1111 -1125 0
-1092 1111 1125 0
1092 -1111 1125 0
1111 -1111 1125 0
1125 -1188 0
-1144 -1156 -1170 0
1144 1156 -1170 0
-1156 1156 -1170 0
-1144 1156 1170 0
1144 -1156 1170 0
1156 -1156 1170 0
1170 -1188 0
-1125 -1170 1188 0
1188 -1192 0
-1128 -1173 -1189 0
1128 1173 -1189 0
-1173 1173 -1189 0
-1128 1173 1189 0
1128 -1173 1189 0
1173 -1173 1189 0
1189 -1192 0
-1188 -1189 1192 0
-1192 1193 0
1191 1192 -1193 0
1193 -1197 0
-1133 -1178 -1194 0
1133 1178 -1194 0
-1178 1178 -1194 0
-1133 1178 1194 0
1133 -1178 1194 0
1178 -1178 1194 0
1194 -1197 0
-1193 -1194 1197 0
-1197 1198 0
1196 1197 -1198 0
1096 -1134 0
1116 -1134 0
-1096 -1116 1134 0
-1134 1136 0
1131 -1135 0
1132 -1135 0
-1131 -1132 1135 0
-1135 1136 0
1134 1135 -1136 0
1091 -1097 0
1095 -1097 0
-1091 -1095 1097 0
-73 -74 -1088 0
73 74 -1088 0
-74 74 -1088 0
-73 74 1088 0
73 -74 1088 0
74 -74 1088 0
-1088 -1090 -1098 0
1088 1090 -1098 0
-1090 1090 -1098 0
-1088 1090 1098 0
1088 -1090 1098 0
1090 -1090 1098 0
-1097 -1098 -1099 0
1097 1098 -1099 0
-1098 1098 -1099 0
-1097 1098 1099 0
1097 -1098 1099 0
1098 -1098 1099 0
1103 -1117 0
1109 -1117 0
-1103 -1109 1117 0
-1117 1119 0
1114 -1118 0
1115 -1118 0
-1114 -1115 1118 0
-1118 1119 0
1117 1118 -1119 0
77 -1104 0
78 -1104 0
-77 -78 1104 0
-1104 -1103 -1105 0
1104 1103 -1105 0
-1103 1103 -1105 0
-1104 1103 1105 0
1104 -1103 1105 0
1103 -1103 1105 0
-1105 -1109 -1120 0
1105 1109 -1120 0
-1109 1109 -1120 0
-1105 1109 1120 0
1105 -1109 1120 0
1109 -1109 1120 0
-1119 -1120 -1121 0
1119 1120 -1121 0
-1120 1120 -1121 0
-1119 1120 1121 0
1119 -1120 1121 0
1120 -1120 1121 0
-1099 -1121 -1137 0
1099 1121 -1137 0
-1121 1121 -1137 0
-1099 1121 1137 0
1099 -1121 1137 0
1121 -1121 1137 0
-1136 -1137 -1138 0
1136 1137 -1138 0
-1137 1137 -1138 0
-1136 1137 1138 0
1136 -1137 1138 0
1137 -1137 1138 0
1148 -1179 0
1161 -1179 0
-1148 -1161 1179 0
-1179 1181 0
1176 -1180 0
1177 -1180 0
-1176 -1177 1180 0
-1180 1181 0
1179 1180 -1181 0
1143 -1149 0
1147 -1149 0
-1143 -1147 1149 0
1150 -1162 0
1154 -1162 0
-1150 -1154 1162 0
-1162 1164 0
1159 -1163 0
1160 -1163 0
-1159 -1160 1163 0
-1163 1164 0
1162 1163 -1164 0
85 -1151 0
86 -1151 0
-85 -86 1151 0
-1151 -1153 -1165 0
1151 1153 -1165 0
-1153 1153 -1165 0
-1151 1153 1165 0
1151 -1153 1165 0
1153 -1153 1165 0
-1164 -1165 -1166 0
1164 1165 -1166 0
-1165 1165 -1166 0
-1164 1165 1166 0
1164 -1165 1166 0
1165 -1165 1166 0
-1149 -1166 -1182 0
1149 1166 -1182 0
-1166 1166 -1182 0
-1149 1166 1182 0
1149 -1166 1182 0
1166 -1166 1182 0
-1181 -1182 -1183 0
1181 1182 -1183 0
-1182 1182 -1183 0
-1181 1182 1183 0
1181 -1182 1183 0
1182 -1182 1183 0
-1138 -1183 -1199 0
1138 1183 -1199 0
-1183 1183 -1199 0
-1138 1183 1199 0
1138 -1183 1199 0
1183 -1183 1199 0
-1198 -1199 -1200 0
1198 1199 -1200 0
-1199 1199 -1200 0
-1198 1199 1200 0
1198 -1199 1200 0
1199 -1199 1200 0
-1193 -1194 -1195 0
1193 1194 -1195 0
-1194 1194 -1195 0
-1193 1194 1195 0
1193 -1194 1195 0
1194 -1194 1195 0
-1200 1195 -1204 0
1204 -1210 0
-1195 -1200 1205 0
-1188 -1189 -1190 0
1188 1189 -1190 0
-1189 1189 -1190 0
-1188 1189 1190 0
1188 -1189 1190 0
1189 -1189 1190 0
-1205 1190 -1206 0
1206 -1210 0
-1190 -1205 1207 0
-1125 -1170 -1187 0
1125 1170 -1187 0
-1170 1170 -1187 0
-1125 1170 1187 0
1125 -1170 1187 0
1170 -1170 1187 0
-1207 1187 -1208 0
1208 -1210 0
1210 -1212 0
-1200 -1195 -1190 -1187 -1211 0
1211 -1212 0
1212 -1231 0
-1195 777 -1213 0
1200 1213 -1214 0
1214 -1225 0
-1195 -777 1215 0
1195 777 1215 0
-777 777 1215 0
1200 -1215 1216 0
-1190 774 -1217 0
-1216 1217 -1218 0
1218 -1225 0
-1190 -774 1219 0
1190 774 1219 0
-774 774 1219 0
-1216 -1219 1220 0
-1187 771 -1221 0
-1220 1221 -1222 0
1222 -1225 0
1225 -1230 0
-1187 -771 -1226 0
1187 771 -1226 0
-771 771 -1226 0
-1190 -774 -1227 0
1190 774 -1227 0
-774 774 -1227 0
-1195 -777 -1228 0
1195 777 -1228 0
-777 777 -1228 0
1200 1226 1227 1228 -1229 0
1229 -1230 0
1230 -1231 0
-630 1231 -1232 0
1232 -1233 0
1233 -1234 0
-5 6 -1235 0
1235 -1329 0
-5 -6 1236 0
5 6 1236 0
-6 6 1236 0
-1 2 -1237 0
-1236 1237 -1238 0
1238 -1329 0
-1 -2 1239 0
1 2 1239 0
-2 2 1239 0
-1236 -1239 1240 0
-25 41 -1241 0
-1240 1241 -1242 0
1242 -1329 0
-25 -41 1243 0
25 41 1243 0
-41 41 1243 0
-1240 -1243 1244 0
-26 42 -1245 0
-1244 1245 -1246 0
1246 -1329 0
-26 -42 1247 0
26 42 1247 0
-42 42 1247 0
-1244 -1247 1248 0
-27 43 -1249 0
-1248 1249 -1250 0
1250 -1329 0
-27 -43 1251 0
27 43 1251 0
-43 43 1251 0
-1248 -1251 1252 0
-28 44 -1253 0
-1252 1253 -1254 0
1254 -1329 0
-28 -44 1255 0
28 44 1255 0
-44 44 1255 0
-1252 -1255 1256 0
-29 45 -1257 0
-1256 1257 -1258 0
1258 -1329 0
-29 -45 1259 0
29 45 1259 0
-45 45 1259 0
-1256 -1259 1260 0
-30 46 -1261 0
-1260 1261 -1262 0
1262 -1329 0
-30 -46 1263 0
30 46 1263 0
-46 46 1263 0
-1260 -1263 1264 0
-31 47 -1265 0
-1264 1265 -1266 0
1266 -1329 0
-31 -47 1267 0
31 47 1267 0
-47 47 1267 0
-1264 -1267 1268 0
-32 48 -1269 0
-1268 1269 -1270 0
1270 -1329 0
-32 -48 1271 0
32 48 1271 0
-48 48 1271 0
-1268 -1271 1272 0
-33 49 -1273 0
-1272 1273 -1274 0
1274 -1329 0
-33 -49 1275 0
33 49 1275 0
-49 49 1275 0
-1272 -1275 1276 0
-34 50 -1277 0
-1276 1277 -1278 0
1278 -1329 0
-34 -50 1279 0
34 50 1279 0
-50 50 1279 0
-1276 -1279 1280 0
-35 51 -1281 0
-1280 1281 -1282 0
1282 -1329 0
-35 -51 1283 0
35 51 1283 0
-51 51 1283 0
-1280 -1283 1284 0
-36 52 -1285 0
-1284 1285 -1286 0
1286 -1329 0
-36 -52 1287 0
36 52 1287 0
-52 52 1287 0
-1284 -1287 1288 0
-37 53 -1289 0
-1288 1289 -1290 0
1290 -1329 0
-37 -53 1291 0
37 53 1291 0
-53 53 1291 0
-1288 -1291 1292 0
-38 54 -1293 0
-1292 1293 -1294 0
1294 -1329 0
-38 -54 1295 0
38 54 1295 0
-54 54 1295 0
-1292 -1295 1296 0
-39 55 -1297 0
-1296 1297 -1298 0
1298 -1329 0
-39 -55 1299 0
39 55 1299 0
-55 55 1299 0
-1296 -1299 1300 0
-40 56 -1301 0
-1300 1301 -1302 0
1302 -1329 0
-40 -56 1303 0
40 56 1303 0
-56 56 1303 0
-1300 -1303 1304 0
-89 94 -1305 0
-1304 1305 -1306 0
1306 -1329 0
-89 -94 1307 0
89 94 1307 0
-94 94 1307 0
-1304 -1307 1308 0
-90 93 -1309 0
-1308 1309 -1310 0
1310 -1329 0
-90 -93 1311 0
90 93 1311 0
-93 93 1311 0
-1308 -1311 1312 0
-91 95 -1313 0
-1312 1313 -1314 0
1314 -1329 0
-91 -95 1315 0
91 95 1315 0
-95 95 1315 0
-1312 -1315 1316 0
-92 96 -1317 0
-1316 1317 -1318 0
1318 -1329 0
-92 -96 1319 0
92 96 1319 0
-96 96 1319 0
-1316 -1319 1320 0
-97 98 -1321 0
-1320 1321 -1322 0
1322 -1329 0
-97 -98 1323 0
97 98 1323 0
-98 98 1323 0
-1320 -1323 1324 0
-101 102 -1325 0
-1324 1325 -1326 0
1326 -1329 0
1329 -1520 0
-6 7 -1330 0
1330 -1424 0
-6 -7 1331 0
6 7 1331 0
-7 7 1331 0
-2 3 -1332 0
-1331 1332 -1333 0
1333 -1424 0
-2 -3 1334 0
2 3 1334 0
-3 3 1334 0
-1331 -1334 1335 0
-41 57 -1336 0
-1335 1336 -1337 0
1337 -1424 0
-41 -57 1338 0
41 57 1338 0
-57 57 1338 0
-1335 -1338 1339 0
-42 58 -1340 0
-1339 1340 -1341 0
1341 -1424 0
-42 -58 1342 0
42 58 1342 0
-58 58 1342 0
-1339 -1342 1343 0
-43 59 -1344 0
-1343 1344 -1345 0
1345 -1424 0
-43 -59 1346 0
43 59 1346 0
-59 59 1346 0
-1343 -1346 1347 0
-44 60 -1348 0
-1347 1348 -1349 0
1349 -1424 0
-44 -60 1350 0
44 60 1350 0
-60 60 1350 0
-1347 -1350 1351 0
-45 61 -1352 0
-1351 1352 -1353 0
1353 -1424 0
-45 -61 1354 0
45 61 1354 0
-61 61 1354 0
-1351 -1354 1355 0
-46 62 -1356 0
-1355 1356 -1357 0
1357 -1424 0
-46 -62 1358 0
46 62 1358 0
-62 62 1358 0
-1355 -1358 1359 0
-47 63 -1360 0
-1359 1360 -1361 0
1361 -1424 0
-47 -63 1362 0
47 63 1362 0
-63 63 1362 0
-1359 -1362 1363 0
-48 64 -1364 0
-1363 1364 -1365 0
1365 -1424 0
-48 -64 1366 0
48 64 1366 0
-64 64 1366 0
-1363 -1366 1367 0
-49 65 -1368 0
-1367 1368 -1369 0
1369 -1424 0
-49 -65 1370 0
49 65 1370 0
-65 65 1370 0
-1367 -1370 1371 0
-50 66 -1372 0
-1371 1372 -1373 0
1373 -1424 0
-50 -66 1374 0
50 66 1374 0
-66 66 1374 0
-1371 -1374 1375 0
-51 67 -1376 0
-1375 1376 -1377 0
1377 -1424 0
-51 -67 1378 0
51 67 1378 0
-67 67 1378 0
-1375 -1378 1379 0
-52 68 -1380 0
-1379 1380 -1381 0
1381 -1424 0
-52 -68 1382 0
52 68 1382 0
-68 68 1382 0
-1379 -1382 1383 0
-53 69 -1384 0
-1383 1384 -1385 0
1385 -1424 0
-53 -69 1386 0
53 69 1386 0
-69 69 1386 0
-1383 -1386 1387 0
-54 70 -1388 0
-1387 1388 -1389 0
1389 -1424 0
-54 -70 1390 0
54 70 1390 0
-70 70 1390 0
-1387 -1390 1391 0
-55 71 -1392 0
-1391 1392 -1393 0
1393 -1424 0
-55 -71 1394 0
55 71 1394 0
-71 71 1394 0
-1391 -1394 1395 0
-56 72 -1396 0
-1395 1396 -1397 0
1397 -1424 0
-56 -72 1398 0
56 72 1398 0
-72 72 1398 0
-1395 -1398 1399 0
-90 91 -1400 0
-1399 1400 -1401 0
1401 -1424 0
-90 -91 1402 0
90 91 1402 0
-91 91 1402 0
-1399 -1402 1403 0
-93 97 -1404 0
-1403 1404 -1405 0
1405 -1424 0
-93 -97 1406 0
93 97 1406 0
-97 97 1406 0
-1403 -1406 1407 0
-94 99 -1408 0
-1407 1408 -1409 0
1409 -1424 0
-94 -99 1410 0
94 99 1410 0
-99 99 1410 0
-1407 -1410 1411 0
-95 98 -1412 0
-1411 1412 -1413 0
1413 -1424 0
-95 -98 1414 0
95 98 1414 0
-98 98 1414 0
-1411 -1414 1415 0
-96 100 -1416 0
-1415 1416 -1417 0
1417 -1424 0
-96 -100 1418 0
96 100 1418 0
-100 100 1418 0
-1415 -1418 1419 0
-102 103 -1420 0
-1419 1420 -1421 0
1421 -1424 0
1424 -1520 0
-7 8 -1425 0
1425 -1519 0
-7 -8 1426 0
7 8 1426 0
-8 8 1426 0
-3 4 -1427 0
-1426 1427 -1428 0
1428 -1519 0
-3 -4 1429 0
3 4 1429 0
-4 4 1429 0
-1426 -1429 1430 0
-57 73 -1431 0
-1430 1431 -1432 0
1432 -1519 0
-57 -73 1433 0
57 73 1433 0
-73 73 1433 0
-1430 -1433 1434 0
-58 74 -1435 0
-1434 1435 -1436 0
1436 -1519 0
-58 -74 1437 0
58 74 1437 0
-74 74 1437 0
-1434 -1437 1438 0
-59 75 -1439 0
-1438 1439 -1440 0
1440 -1519 0
-59 -75 1441 0
59 75 1441 0
-75 75 1441 0
-1438 -1441 1442 0
-60 76 -1443 0
-1442 1443 -1444 0
1444 -1519 0
-60 -76 1445 0
60 76 1445 0
-76 76 1445 0
-1442 -1445 1446 0
-61 77 -1447 0
-1446 1447 -1448 0
1448 -1519 0
-61 -77 1449 0
61 77 1449 0
-77 77 1449 0
-1446 -1449 1450 0
-62 78 -1451 0
-1450 1451 -1452 0
1452 -1519 0
-62 -78 1453 0
62 78 1453 0
-78 78 1453 0
-1450 -1453 1454 0
-63 79 -1455 0
-1454 1455 -1456 0
1456 -1519 0
-63 -79 1457 0
63 79 1457 0
-79 79 1457 0
-1454 -1457 1458 0
-64 80 -1459 0
-1458 1459 -1460 0
1460 -1519 0
-64 -80 1461 0
64 80 1461 0
-80 80 1461 0
-1458 -1461 1462 0
-65 81 -1463 0
-1462 1463 -1464 0
1464 -1519 0
-65 -81 1465 0
65 81 1465 0
-81 81 1465 0
-1462 -1465 1466 0
-66 82 -1467 0
-1466 1467 -1468 0
1468 -1519 0
-66 -82 1469 0
66 82 1469 0
-82 82 1469 0
-1466 -1469 1470 0
-67 83 -1471 0
-1470 1471 -1472 0
1472 -1519 0
-67 -83 1473 0
67 83 1473 0
-83 83 1473 0
-1470 -1473 1474 0
-68 84 -1475 0
-1474 1475 -1476 0
1476 -1519 0
-68 -84 1477 0
68 84 1477 0
-84 84 1477 0
-1474 -1477 1478 0
-69 85 -1479 0
-1478 1479 -1480 0
1480 -1519 0
-69 -85 1481 0
69 85 1481 0
-85 85 1481 0
-1478 -1481 1482 0
-70 86 -1483 0
-1482 1483 -1484 0
1484 -1519 0
-70 -86 1485 0
70 86 1485 0
-86 86 1485 0
-1482 -1485 1486 0
-71 87 -1487 0
-1486 1487 -1488 0
1488 -1519 0
-71 -87 1489 0
71 87 1489 0
-87 87 1489 0
-1486 -1489 1490 0
-72 88 -1491 0
-1490 1491 -1492 0
1492 -1519 0
-72 -88 1493 0
72 88 1493 0
-88 88 1493 0
-1490 -1493 1494 0
-91 92 -1495 0
-1494 1495 -1496 0
1496 -1519 0
-91 -92 1497 0
91 92 1497 0
-92 92 1497 0
-1494 -1497 1498 0
-95 96 -1499 0
-1498 1499 -1500 0
1500 -1519 0
-95 -96 1501 0
95 96 1501 0
-96 96 1501 0
-1498 -1501 1502 0
-97 101 -1503 0
-1502 1503 -1504 0
1504 -1519 0
-97 -101 1505 0
97 101 1505 0
-101 101 1505 0
-1502 -1505 1506 0
-98 102 -1507 0
-1506 1507 -1508 0
1508 -1519 0
-98 -102 1509 0
98 102 1509 0
-102 102 1509 0
-1506 -1509 1510 0
-99 104 -1511 0
-1510 1511 -1512 0
1512 -1519 0
-99 -104 1513 0
99 104 1513 0
-104 104 1513 0
-1510 -1513 1514 0
-100 103 -1515 0
-1514 1515 -1516 0
1516 -1519 0
1519 -1520 0
1234 0
1520 0
c ind 1 2 3 4 5 6 7 8 9 10 11 12 13 14 15 16 17 18 19 20 21 22 23 24 25 26 27 28 29 30 31 32 33 34 35 36 37 38 39 40 41 42 43 44 45 46 47 48 49 50 51 52 53 54 55 56 57 58 59 60 61 62 63 64 65 66 67 68 69 70 71 72 73 74 75 76 77 78 79 80 81 82 83 84 85 86 87 88 89 90 91 92 93 94 95 96 97 98 99 100 101 102 103 104 105 106 107 108 109 110 111 112 113 114 115 116 117 118 119 120 0
