p cnf 1433 2786             
-6 -5 -89 0
89 -95 0
-5 90 0
-6 90 0
-90 -7 -91 0
91 -95 0
-7 92 0
-90 92 0
-92 -8 -93 0
93 -95 0
95 -101 0
-5 1 -96 0
96 -100 0
-6 2 -97 0
97 -100 0
-7 3 -98 0
98 -100 0
-8 4 -99 0
99 -100 0
100 -101 0
101 -1146 0
-10 -9 -102 0
102 -132 0
-9 103 0
-10 103 0
9 10 -103 0
-103 -11 -104 0
104 -132 0
-11 105 0
-103 105 0
11 103 -105 0
-105 -12 -106 0
106 -132 0
-12 107 0
-105 107 0
12 105 -107 0
-107 -13 -108 0
108 -132 0
-13 109 0
-107 109 0
13 107 -109 0
-109 -14 -110 0
110 -132 0
-14 111 0
-109 111 0
14 109 -111 0
-111 -15 -112 0
112 -132 0
-15 113 0
-111 113 0
15 111 -113 0
-113 -16 -114 0
114 -132 0
-16 115 0
-113 115 0
16 113 -115 0
-115 -17 -116 0
116 -132 0
-17 117 0
-115 117 0
17 115 -117 0
-117 -18 -118 0
118 -132 0
-18 119 0
-117 119 0
18 117 -119 0
-119 -19 -120 0
120 -132 0
-19 121 0
-119 121 0
19 119 -121 0
-121 -20 -122 0
122 -132 0
-20 123 0
-121 123 0
20 121 -123 0
-123 -21 -124 0
124 -132 0
-21 125 0
-123 125 0
21 123 -125 0
-125 -22 -126 0
126 -132 0
-22 127 0
-125 127 0
22 125 -127 0
-127 -23 -128 0
128 -132 0
-23 129 0
-127 129 0
23 127 -129 0
-129 -24 -130 0
130 -132 0
24 129 -131 0
131 -132 0
-1 132 -133 0
133 -230 0
-26 -25 -134 0
134 -164 0
-25 135 0
-26 135 0
25 26 -135 0
-135 -27 -136 0
136 -164 0
-27 137 0
-135 137 0
27 135 -137 0
-137 -28 -138 0
138 -164 0
-28 139 0
-137 139 0
28 137 -139 0
-139 -29 -140 0
140 -164 0
-29 141 0
-139 141 0
29 139 -141 0
-141 -30 -142 0
142 -164 0
-30 143 0
-141 143 0
30 141 -143 0
-143 -31 -144 0
144 -164 0
-31 145 0
-143 145 0
31 143 -145 0
-145 -32 -146 0
146 -164 0
-32 147 0
-145 147 0
32 145 -147 0
-147 -33 -148 0
148 -164 0
-33 149 0
-147 149 0
33 147 -149 0
-149 -34 -150 0
150 -164 0
-34 151 0
-149 151 0
34 149 -151 0
-151 -35 -152 0
152 -164 0
-35 153 0
-151 153 0
35 151 -153 0
-153 -36 -154 0
154 -164 0
-36 155 0
-153 155 0
36 153 -155 0
-155 -37 -156 0
156 -164 0
-37 157 0
-155 157 0
37 155 -157 0
-157 -38 -158 0
158 -164 0
-38 159 0
-157 159 0
38 157 -159 0
-159 -39 -160 0
160 -164 0
-39 161 0
-159 161 0
39 159 -161 0
-161 -40 -162 0
162 -164 0
40 161 -163 0
163 -164 0
-2 164 -165 0
165 -230 0
-42 -41 -166 0
166 -196 0
-41 167 0
-42 167 0
41 42 -167 0
-167 -43 -168 0
168 -196 0
-43 169 0
-167 169 0
43 167 -169 0
-169 -44 -170 0
170 -196 0
-44 171 0
-169 171 0
44 169 -171 0
-171 -45 -172 0
172 -196 0
-45 173 0
-171 173 0
45 171 -173 0
-173 -46 -174 0
174 -196 0
-46 175 0
-173 175 0
46 173 -175 0
-175 -47 -176 0
176 -196 0
-47 177 0
-175 177 0
47 175 -177 0
-177 -48 -178 0
178 -196 0
-48 179 0
-177 179 0
48 177 -179 0
-179 -49 -180 0
180 -196 0
-49 181 0
-179 181 0
49 179 -181 0
-181 -50 -182 0
182 -196 0
-50 183 0
-181 183 0
50 181 -183 0
-183 -51 -184 0
184 -196 0
-51 185 0
-183 185 0
51 183 -185 0
-185 -52 -186 0
186 -196 0
-52 187 0
-185 187 0
52 185 -187 0
-187 -53 -188 0
188 -196 0
-53 189 0
-187 189 0
53 187 -189 0
-189 -54 -190 0
190 -196 0
-54 191 0
-189 191 0
54 189 -191 0
-191 -55 -192 0
192 -196 0
-55 193 0
-191 193 0
55 191 -193 0
-193 -56 -194 0
194 -196 0
56 193 -195 0
195 -196 0
-3 196 -197 0
197 -230 0
-58 -57 -198 0
198 -228 0
-57 199 0
-58 199 0
57 58 -199 0
-199 -59 -200 0
200 -228 0
-59 201 0
-199 201 0
59 199 -201 0
-201 -60 -202 0
202 -228 0
-60 203 0
-201 203 0
60 201 -203 0
-203 -61 -204 0
204 -228 0
-61 205 0
-203 205 0
61 203 -205 0
-205 -62 -206 0
206 -228 0
-62 207 0
-205 207 0
62 205 -207 0
-207 -63 -208 0
208 -228 0
-63 209 0
-207 209 0
63 207 -209 0
-209 -64 -210 0
210 -228 0
-64 211 0
-209 211 0
64 209 -211 0
-211 -65 -212 0
212 -228 0
-65 213 0
-211 213 0
65 211 -213 0
-213 -66 -214 0
214 -228 0
-66 215 0
-213 215 0
66 213 -215 0
-215 -67 -216 0
216 -228 0
-67 217 0
-215 217 0
67 215 -217 0
-217 -68 -218 0
218 -228 0
-68 219 0
-217 219 0
68 217 -219 0
-219 -69 -220 0
220 -228 0
-69 221 0
-219 221 0
69 219 -221 0
-221 -70 -222 0
222 -228 0
-70 223 0
-221 223 0
70 221 -223 0
-223 -71 -224 0
224 -228 0
-71 225 0
-223 225 0
71 223 -225 0
-225 -72 -226 0
226 -228 0
72 225 -227 0
227 -228 0
-4 228 -229 0
229 -230 0
230 -1146 0
-9 231 0
-10 231 0
-11 231 0
-12 231 0
-13 231 0
-14 231 0
-15 231 0
-16 231 0
-17 231 0
-18 231 0
-19 231 0
-20 231 0
-21 231 0
-22 231 0
-23 231 0
-24 231 0
-231 1 -235 0
235 -239 0
-25 232 0
-26 232 0
-27 232 0
-28 232 0
-29 232 0
-30 232 0
-31 232 0
-32 232 0
-33 232 0
-34 232 0
-35 232 0
-36 232 0
-37 232 0
-38 232 0
-39 232 0
-40 232 0
-232 2 -236 0
236 -239 0
-41 233 0
-42 233 0
-43 233 0
-44 233 0
-45 233 0
-46 233 0
-47 233 0
-48 233 0
-49 233 0
-50 233 0
-51 233 0
-52 233 0
-53 233 0
-54 233 0
-55 233 0
-56 233 0
-233 3 -237 0
237 -239 0
-57 234 0
-58 234 0
-59 234 0
-60 234 0
-61 234 0
-62 234 0
-63 234 0
-64 234 0
-65 234 0
-66 234 0
-67 234 0
-68 234 0
-69 234 0
-70 234 0
-71 234 0
-72 234 0
-234 4 -238 0
238 -239 0
239 -1146 0
-74 -73 -240 0
240 -246 0
-73 241 0
-74 241 0
-241 -75 -242 0
242 -246 0
-75 243 0
-241 243 0
-243 -76 -244 0
244 -246 0
246 -252 0
-73 1 -247 0
247 -251 0
-74 2 -248 0
248 -251 0
-75 3 -249 0
249 -251 0
-76 4 -250 0
250 -251 0
251 -252 0
-1 252 -253 0
253 -296 0
-78 -77 -254 0
254 -260 0
-77 255 0
-78 255 0
-255 -79 -256 0
256 -260 0
-79 257 0
-255 257 0
-257 -80 -258 0
258 -260 0
260 -266 0
-77 1 -261 0
261 -265 0
-78 2 -262 0
262 -265 0
-79 3 -263 0
263 -265 0
-80 4 -264 0
264 -265 0
265 -266 0
-2 266 -267 0
267 -296 0
-82 -81 -268 0
268 -274 0
-81 269 0
-82 269 0
-269 -83 -270 0
270 -274 0
-83 271 0
-269 271 0
-271 -84 -272 0
272 -274 0
274 -280 0
-81 1 -275 0
275 -279 0
-82 2 -276 0
276 -279 0
-83 3 -277 0
277 -279 0
-84 4 -278 0
278 -279 0
279 -280 0
-3 280 -281 0
281 -296 0
-86 -85 -282 0
282 -288 0
-85 283 0
-86 283 0
-283 -87 -284 0
284 -288 0
-87 285 0
-283 285 0
-285 -88 -286 0
286 -288 0
288 -294 0
-85 1 -289 0
289 -293 0
-86 2 -290 0
290 -293 0
-87 3 -291 0
291 -293 0
-88 4 -292 0
292 -293 0
293 -294 0
-4 294 -295 0
295 -296 0
296 -1146 0
-76 245 0
-243 245 0
-245 1 -297 0
297 -301 0
-80 259 0
-257 259 0
-259 2 -298 0
298 -301 0
-84 273 0
-271 273 0
-273 3 -299 0
299 -301 0
-88 287 0
-285 287 0
-287 4 -300 0
300 -301 0
301 -1146 0
5 -470 0
-1 466 0
-73 356 0
74 -305 0
77 -305 0
-74 -77 305 0
-305 356 0
75 -309 0
81 -309 0
-75 -81 309 0
-309 356 0
76 -313 0
85 -313 0
-76 -85 313 0
-313 356 0
73 305 309 313 -356 0
-356 438 0
-74 372 0
73 -302 0
74 -302 0
-73 -74 302 0
-302 357 0
74 -306 0
78 -306 0
-74 -78 306 0
-306 357 0
75 -310 0
82 -310 0
-75 -82 310 0
-310 357 0
76 -314 0
86 -314 0
-76 -86 314 0
-314 357 0
302 306 310 314 -357 0
-357 372 0
74 357 -372 0
372 -387 0
-77 375 0
73 -317 0
77 -317 0
-73 -77 317 0
-317 360 0
77 -320 0
78 -320 0
-77 -78 320 0
-320 360 0
79 -323 0
81 -323 0
-79 -81 323 0
-323 360 0
80 -327 0
85 -327 0
-80 -85 327 0
-327 360 0
317 320 323 327 -360 0
-360 375 0
77 360 -375 0
375 -387 0
-372 -375 387 0
-387 438 0
-75 373 0
73 -303 0
75 -303 0
-73 -75 303 0
-303 358 0
74 -307 0
79 -307 0
-74 -79 307 0
-307 358 0
75 -311 0
83 -311 0
-75 -83 311 0
-311 358 0
76 -315 0
87 -315 0
-76 -87 315 0
-315 358 0
303 307 311 315 -358 0
-358 373 0
75 358 -373 0
373 -391 0
-81 378 0
73 -331 0
81 -331 0
-73 -81 331 0
-331 364 0
77 -334 0
82 -334 0
-77 -82 334 0
-334 364 0
81 -337 0
83 -337 0
-81 -83 337 0
-337 364 0
84 -340 0
85 -340 0
-84 -85 340 0
-340 364 0
331 334 337 340 -364 0
-364 378 0
81 364 -378 0
378 -391 0
-373 -378 391 0
-391 438 0
-76 374 0
73 -304 0
76 -304 0
-73 -76 304 0
-304 359 0
74 -308 0
80 -308 0
-74 -80 308 0
-308 359 0
75 -312 0
84 -312 0
-75 -84 312 0
-312 359 0
76 -316 0
88 -316 0
-76 -88 316 0
-316 359 0
304 308 312 316 -359 0
-359 374 0
76 359 -374 0
374 -395 0
-85 381 0
73 -344 0
85 -344 0
-73 -85 344 0
-344 368 0
77 -347 0
86 -347 0
-77 -86 347 0
-347 368 0
81 -350 0
87 -350 0
-81 -87 350 0
-350 368 0
85 -353 0
88 -353 0
-85 -88 353 0
-353 368 0
344 347 350 353 -368 0
-368 381 0
85 368 -381 0
381 -395 0
-374 -381 395 0
-395 438 0
356 387 391 395 -438 0
-438 466 0
1 438 -466 0
466 -470 0
-5 -466 470 0
-470 486 0
6 -474 0
-375 457 0
356 -399 0
375 -399 0
-356 -375 399 0
-399 442 0
-78 361 0
-305 361 0
79 -324 0
82 -324 0
-79 -82 324 0
-324 361 0
80 -328 0
86 -328 0
-80 -86 328 0
-328 361 0
78 305 324 328 -361 0
361 -402 0
375 -402 0
-361 -375 402 0
-402 442 0
-79 376 0
75 -318 0
77 -318 0
-75 -77 318 0
-318 362 0
78 -321 0
79 -321 0
-78 -79 321 0
-321 362 0
79 -325 0
83 -325 0
-79 -83 325 0
-325 362 0
80 -329 0
87 -329 0
-80 -87 329 0
-329 362 0
318 321 325 329 -362 0
-362 376 0
79 362 -376 0
376 -405 0
378 -405 0
-376 -378 405 0
-405 442 0
-80 377 0
76 -319 0
77 -319 0
-76 -77 319 0
-319 363 0
78 -322 0
80 -322 0
-78 -80 322 0
-322 363 0
79 -326 0
84 -326 0
-79 -84 326 0
-326 363 0
80 -330 0
88 -330 0
-80 -88 330 0
-330 363 0
319 322 326 330 -363 0
-363 377 0
80 363 -377 0
377 -409 0
381 -409 0
-377 -381 409 0
-409 442 0
399 402 405 409 -442 0
-442 457 0
375 442 -457 0
457 -474 0
-6 -457 474 0
-474 486 0
7 -478 0
-378 460 0
356 -413 0
378 -413 0
-356 -378 413 0
-413 446 0
375 -416 0
-82 379 0
74 -332 0
81 -332 0
-74 -81 332 0
-332 365 0
78 -335 0
82 -335 0
-78 -82 335 0
-335 365 0
82 -338 0
83 -338 0
-82 -83 338 0
-338 365 0
84 -341 0
86 -341 0
-84 -86 341 0
-341 365 0
332 335 338 341 -365 0
-365 379 0
82 365 -379 0
379 -416 0
-375 -379 416 0
-416 446 0
-83 366 0
-309 366 0
-324 366 0
84 -342 0
87 -342 0
-84 -87 342 0
-342 366 0
83 309 324 342 -366 0
366 -419 0
378 -419 0
-366 -378 419 0
-419 446 0
-84 380 0
76 -333 0
81 -333 0
-76 -81 333 0
-333 367 0
80 -336 0
82 -336 0
-80 -82 336 0
-336 367 0
83 -339 0
84 -339 0
-83 -84 339 0
-339 367 0
84 -343 0
88 -343 0
-84 -88 343 0
-343 367 0
333 336 339 343 -367 0
-367 380 0
84 367 -380 0
380 -422 0
381 -422 0
-380 -381 422 0
-422 446 0
413 416 419 422 -446 0
-446 460 0
378 446 -460 0
460 -478 0
-7 -460 478 0
-478 486 0
8 -482 0
-381 463 0
356 -426 0
381 -426 0
-356 -381 426 0
-426 450 0
375 -429 0
-86 382 0
74 -345 0
85 -345 0
-74 -85 345 0
-345 369 0
78 -348 0
86 -348 0
-78 -86 348 0
-348 369 0
82 -351 0
87 -351 0
-82 -87 351 0
-351 369 0
86 -354 0
88 -354 0
-86 -88 354 0
-354 369 0
345 348 351 354 -369 0
-369 382 0
86 369 -382 0
382 -429 0
-375 -382 429 0
-429 450 0
378 -432 0
-87 383 0
75 -346 0
85 -346 0
-75 -85 346 0
-346 370 0
79 -349 0
86 -349 0
-79 -86 349 0
-349 370 0
83 -352 0
87 -352 0
-83 -87 352 0
-352 370 0
87 -355 0
88 -355 0
-87 -88 355 0
-355 370 0
346 349 352 355 -370 0
-370 383 0
87 370 -383 0
383 -432 0
-378 -383 432 0
-432 450 0
-88 371 0
-313 371 0
-328 371 0
-342 371 0
88 313 328 342 -371 0
371 -435 0
381 -435 0
-371 -381 435 0
-435 450 0
426 429 432 435 -450 0
-450 463 0
381 450 -463 0
463 -482 0
-8 -463 482 0
-482 486 0
470 474 478 482 -486 0
-486 1 -490 0
490 -494 0
5 -471 0
-372 454 0
356 -384 0
372 -384 0
-356 -372 384 0
-384 439 0
361 -388 0
372 -388 0
-361 -372 388 0
-388 439 0
373 -392 0
379 -392 0
-373 -379 392 0
-392 439 0
374 -396 0
382 -396 0
-374 -382 396 0
-396 439 0
384 388 392 396 -439 0
-439 454 0
372 439 -454 0
454 -471 0
-5 -454 471 0
-471 487 0
6 -475 0
-2 467 0
-361 443 0
-387 443 0
376 -406 0
379 -406 0
-376 -379 406 0
-406 443 0
377 -410 0
382 -410 0
-377 -382 410 0
-410 443 0
361 387 406 410 -443 0
-443 467 0
2 443 -467 0
467 -475 0
-6 -467 475 0
-475 487 0
7 -479 0
-379 461 0
372 -414 0
378 -414 0
-372 -378 414 0
-414 447 0
361 -417 0
379 -417 0
-361 -379 417 0
-417 447 0
366 -420 0
379 -420 0
-366 -379 420 0
-420 447 0
380 -423 0
382 -423 0
-380 -382 423 0
-423 447 0
414 417 420 423 -447 0
-447 461 0
379 447 -461 0
461 -479 0
-7 -461 479 0
-479 487 0
8 -483 0
-382 464 0
372 -427 0
381 -427 0
-372 -381 427 0
-427 451 0
361 -430 0
382 -430 0
-361 -382 430 0
-430 451 0
379 -433 0
383 -433 0
-379 -383 433 0
-433 451 0
371 -436 0
382 -436 0
-371 -382 436 0
-436 451 0
427 430 433 436 -451 0
-451 464 0
382 451 -464 0
464 -483 0
-8 -464 483 0
-483 487 0
471 475 479 483 -487 0
-487 2 -491 0
491 -494 0
5 -472 0
-373 455 0
356 -385 0
373 -385 0
-356 -373 385 0
-385 440 0
372 -389 0
376 -389 0
-372 -376 389 0
-389 440 0
366 -393 0
373 -393 0
-366 -373 393 0
-393 440 0
374 -397 0
383 -397 0
-374 -383 397 0
-397 440 0
385 389 393 397 -440 0
-440 455 0
373 440 -455 0
455 -472 0
-5 -455 472 0
-472 488 0
6 -476 0
-376 458 0
373 -400 0
375 -400 0
-373 -375 400 0
-400 444 0
361 -403 0
376 -403 0
-361 -376 403 0
-403 444 0
366 -407 0
376 -407 0
-366 -376 407 0
-407 444 0
377 -411 0
383 -411 0
-377 -383 411 0
-411 444 0
400 403 407 411 -444 0
-444 458 0
376 444 -458 0
458 -476 0
-6 -458 476 0
-476 488 0
7 -480 0
-3 468 0
-366 448 0
-391 448 0
-406 448 0
380 -424 0
383 -424 0
-380 -383 424 0
-424 448 0
366 391 406 424 -448 0
-448 468 0
3 448 -468 0
468 -480 0
-7 -468 480 0
-480 488 0
8 -484 0
-383 465 0
373 -428 0
381 -428 0
-373 -381 428 0
-428 452 0
376 -431 0
382 -431 0
-376 -382 431 0
-431 452 0
366 -434 0
383 -434 0
-366 -383 434 0
-434 452 0
371 -437 0
383 -437 0
-371 -383 437 0
-437 452 0
428 431 434 437 -452 0
-452 465 0
383 452 -465 0
465 -484 0
-8 -465 484 0
-484 488 0
472 476 480 484 -488 0
-488 3 -492 0
492 -494 0
5 -473 0
-374 456 0
356 -386 0
374 -386 0
-356 -374 386 0
-386 441 0
372 -390 0
377 -390 0
-372 -377 390 0
-390 441 0
373 -394 0
380 -394 0
-373 -380 394 0
-394 441 0
371 -398 0
374 -398 0
-371 -374 398 0
-398 441 0
386 390 394 398 -441 0
-441 456 0
374 441 -456 0
456 -473 0
-5 -456 473 0
-473 489 0
6 -477 0
-377 459 0
374 -401 0
375 -401 0
-374 -375 401 0
-401 445 0
361 -404 0
377 -404 0
-361 -377 404 0
-404 445 0
376 -408 0
380 -408 0
-376 -380 408 0
-408 445 0
371 -412 0
377 -412 0
-371 -377 412 0
-412 445 0
401 404 408 412 -445 0
-445 459 0
377 445 -459 0
459 -477 0
-6 -459 477 0
-477 489 0
7 -481 0
-380 462 0
374 -415 0
378 -415 0
-374 -378 415 0
-415 449 0
377 -418 0
379 -418 0
-377 -379 418 0
-418 449 0
366 -421 0
380 -421 0
-366 -380 421 0
-421 449 0
371 -425 0
380 -425 0
-371 -380 425 0
-425 449 0
415 418 421 425 -449 0
-449 462 0
380 449 -462 0
462 -481 0
-7 -462 481 0
-481 489 0
8 -485 0
-4 469 0
-371 453 0
-395 453 0
-410 453 0
-424 453 0
371 395 410 424 -453 0
-453 469 0
4 453 -469 0
469 -485 0
-8 -469 485 0
-485 489 0
473 477 481 485 -489 0
-489 4 -493 0
493 -494 0
494 -500 0
-1 486 -495 0
495 -499 0
-2 487 -496 0
496 -499 0
-3 488 -497 0
497 -499 0
-4 489 -498 0
498 -499 0
499 -500 0
500 -1146 0
1 -509 0
17 -509 0
2 -525 0
33 -525 0
3 -541 0
49 -541 0
4 -557 0
65 -557 0
509 525 541 557 -573 0
573 -1146 0
17 -582 0
-24 -581 0
-23 -581 0
-22 -581 0
-21 -581 0
-20 -581 0
-19 -581 0
-18 -581 0
-16 -581 0
-15 -581 0
-14 -581 0
-13 -581 0
-12 -581 0
-11 -581 0
-10 -581 0
-9 -581 0
581 -582 0
1 -616 0
-24 -598 0
-9 10 -583 0
583 -598 0
-10 11 -584 0
584 -598 0
-11 12 -585 0
585 -598 0
-12 13 -586 0
586 -598 0
-13 14 -587 0
587 -598 0
-14 15 -588 0
588 -598 0
-15 16 -589 0
589 -598 0
-16 17 -590 0
590 -598 0
-17 18 -591 0
591 -598 0
-18 19 -592 0
592 -598 0
-19 20 -593 0
593 -598 0
-20 21 -594 0
594 -598 0
-21 22 -595 0
595 -598 0
-22 23 -596 0
596 -598 0
-23 24 -597 0
597 -598 0
598 -615 0
-10 9 -599 0
599 -614 0
-11 10 -600 0
600 -614 0
-12 11 -601 0
601 -614 0
-13 12 -602 0
602 -614 0
-14 13 -603 0
603 -614 0
-15 14 -604 0
604 -614 0
-16 15 -605 0
605 -614 0
-17 16 -606 0
606 -614 0
-18 17 -607 0
607 -614 0
-19 18 -608 0
608 -614 0
-20 19 -609 0
609 -614 0
-21 20 -610 0
610 -614 0
-22 21 -611 0
611 -614 0
-23 22 -612 0
612 -614 0
-24 23 -613 0
613 -614 0
614 -615 0
615 -616 0
2 -650 0
-40 -632 0
-25 10 -617 0
617 -632 0
-26 11 -618 0
618 -632 0
-27 12 -619 0
619 -632 0
-28 13 -620 0
620 -632 0
-29 14 -621 0
621 -632 0
-30 15 -622 0
622 -632 0
-31 16 -623 0
623 -632 0
-32 17 -624 0
624 -632 0
-33 18 -625 0
625 -632 0
-34 19 -626 0
626 -632 0
-35 20 -627 0
627 -632 0
-36 21 -628 0
628 -632 0
-37 22 -629 0
629 -632 0
-38 23 -630 0
630 -632 0
-39 24 -631 0
631 -632 0
632 -649 0
-10 25 -633 0
633 -648 0
-11 26 -634 0
634 -648 0
-12 27 -635 0
635 -648 0
-13 28 -636 0
636 -648 0
-14 29 -637 0
637 -648 0
-15 30 -638 0
638 -648 0
-16 31 -639 0
639 -648 0
-17 32 -640 0
640 -648 0
-18 33 -641 0
641 -648 0
-19 34 -642 0
642 -648 0
-20 35 -643 0
643 -648 0
-21 36 -644 0
644 -648 0
-22 37 -645 0
645 -648 0
-23 38 -646 0
646 -648 0
-24 39 -647 0
647 -648 0
648 -649 0
649 -650 0
3 -684 0
-56 -666 0
-41 10 -651 0
651 -666 0
-42 11 -652 0
652 -666 0
-43 12 -653 0
653 -666 0
-44 13 -654 0
654 -666 0
-45 14 -655 0
655 -666 0
-46 15 -656 0
656 -666 0
-47 16 -657 0
657 -666 0
-48 17 -658 0
658 -666 0
-49 18 -659 0
659 -666 0
-50 19 -660 0
660 -666 0
-51 20 -661 0
661 -666 0
-52 21 -662 0
662 -666 0
-53 22 -663 0
663 -666 0
-54 23 -664 0
664 -666 0
-55 24 -665 0
665 -666 0
666 -683 0
-10 41 -667 0
667 -682 0
-11 42 -668 0
668 -682 0
-12 43 -669 0
669 -682 0
-13 44 -670 0
670 -682 0
-14 45 -671 0
671 -682 0
-15 46 -672 0
672 -682 0
-16 47 -673 0
673 -682 0
-17 48 -674 0
674 -682 0
-18 49 -675 0
675 -682 0
-19 50 -676 0
676 -682 0
-20 51 -677 0
677 -682 0
-21 52 -678 0
678 -682 0
-22 53 -679 0
679 -682 0
-23 54 -680 0
680 -682 0
-24 55 -681 0
681 -682 0
682 -683 0
683 -684 0
4 -718 0
-72 -700 0
-57 10 -685 0
685 -700 0
-58 11 -686 0
686 -700 0
-59 12 -687 0
687 -700 0
-60 13 -688 0
688 -700 0
-61 14 -689 0
689 -700 0
-62 15 -690 0
690 -700 0
-63 16 -691 0
691 -700 0
-64 17 -692 0
692 -700 0
-65 18 -693 0
693 -700 0
-66 19 -694 0
694 -700 0
-67 20 -695 0
695 -700 0
-68 21 -696 0
696 -700 0
-69 22 -697 0
697 -700 0
-70 23 -698 0
698 -700 0
-71 24 -699 0
699 -700 0
700 -717 0
-10 57 -701 0
701 -716 0
-11 58 -702 0
702 -716 0
-12 59 -703 0
703 -716 0
-13 60 -704 0
704 -716 0
-14 61 -705 0
705 -716 0
-15 62 -706 0
706 -716 0
-16 63 -707 0
707 -716 0
-17 64 -708 0
708 -716 0
-18 65 -709 0
709 -716 0
-19 66 -710 0
710 -716 0
-20 67 -711 0
711 -716 0
-21 68 -712 0
712 -716 0
-22 69 -713 0
713 -716 0
-23 70 -714 0
714 -716 0
-24 71 -715 0
715 -716 0
716 -717 0
717 -718 0
616 650 684 718 -719 0
582 719 -720 0
-1 720 -721 0
721 -1145 0
33 -723 0
-40 -722 0
-39 -722 0
-38 -722 0
-37 -722 0
-36 -722 0
-35 -722 0
-34 -722 0
-32 -722 0
-31 -722 0
-30 -722 0
-29 -722 0
-28 -722 0
-27 -722 0
-26 -722 0
-25 -722 0
722 -723 0
1 -757 0
-24 -739 0
-9 26 -724 0
724 -739 0
-10 27 -725 0
725 -739 0
-11 28 -726 0
726 -739 0
-12 29 -727 0
727 -739 0
-13 30 -728 0
728 -739 0
-14 31 -729 0
729 -739 0
-15 32 -730 0
730 -739 0
-16 33 -731 0
731 -739 0
-17 34 -732 0
732 -739 0
-18 35 -733 0
733 -739 0
-19 36 -734 0
734 -739 0
-20 37 -735 0
735 -739 0
-21 38 -736 0
736 -739 0
-22 39 -737 0
737 -739 0
-23 40 -738 0
738 -739 0
739 -756 0
-26 9 -740 0
740 -755 0
-27 10 -741 0
741 -755 0
-28 11 -742 0
742 -755 0
-29 12 -743 0
743 -755 0
-30 13 -744 0
744 -755 0
-31 14 -745 0
745 -755 0
-32 15 -746 0
746 -755 0
-33 16 -747 0
747 -755 0
-34 17 -748 0
748 -755 0
-35 18 -749 0
749 -755 0
-36 19 -750 0
750 -755 0
-37 20 -751 0
751 -755 0
-38 21 -752 0
752 -755 0
-39 22 -753 0
753 -755 0
-40 23 -754 0
754 -755 0
755 -756 0
756 -757 0
2 -791 0
-40 -773 0
-25 26 -758 0
758 -773 0
-26 27 -759 0
759 -773 0
-27 28 -760 0
760 -773 0
-28 29 -761 0
761 -773 0
-29 30 -762 0
762 -773 0
-30 31 -763 0
763 -773 0
-31 32 -764 0
764 -773 0
-32 33 -765 0
765 -773 0
-33 34 -766 0
766 -773 0
-34 35 -767 0
767 -773 0
-35 36 -768 0
768 -773 0
-36 37 -769 0
769 -773 0
-37 38 -770 0
770 -773 0
-38 39 -771 0
771 -773 0
-39 40 -772 0
772 -773 0
773 -790 0
-26 25 -774 0
774 -789 0
-27 26 -775 0
775 -789 0
-28 27 -776 0
776 -789 0
-29 28 -777 0
777 -789 0
-30 29 -778 0
778 -789 0
-31 30 -779 0
779 -789 0
-32 31 -780 0
780 -789 0
-33 32 -781 0
781 -789 0
-34 33 -782 0
782 -789 0
-35 34 -783 0
783 -789 0
-36 35 -784 0
784 -789 0
-37 36 -785 0
785 -789 0
-38 37 -786 0
786 -789 0
-39 38 -787 0
787 -789 0
-40 39 -788 0
788 -789 0
789 -790 0
790 -791 0
3 -825 0
-56 -807 0
-41 26 -792 0
792 -807 0
-42 27 -793 0
793 -807 0
-43 28 -794 0
794 -807 0
-44 29 -795 0
795 -807 0
-45 30 -796 0
796 -807 0
-46 31 -797 0
797 -807 0
-47 32 -798 0
798 -807 0
-48 33 -799 0
799 -807 0
-49 34 -800 0
800 -807 0
-50 35 -801 0
801 -807 0
-51 36 -802 0
802 -807 0
-52 37 -803 0
803 -807 0
-53 38 -804 0
804 -807 0
-54 39 -805 0
805 -807 0
-55 40 -806 0
806 -807 0
807 -824 0
-26 41 -808 0
808 -823 0
-27 42 -809 0
809 -823 0
-28 43 -810 0
810 -823 0
-29 44 -811 0
811 -823 0
-30 45 -812 0
812 -823 0
-31 46 -813 0
813 -823 0
-32 47 -814 0
814 -823 0
-33 48 -815 0
815 -823 0
-34 49 -816 0
816 -823 0
-35 50 -817 0
817 -823 0
-36 51 -818 0
818 -823 0
-37 52 -819 0
819 -823 0
-38 53 -820 0
820 -823 0
-39 54 -821 0
821 -823 0
-40 55 -822 0
822 -823 0
823 -824 0
824 -825 0
4 -859 0
-72 -841 0
-57 26 -826 0
826 -841 0
-58 27 -827 0
827 -841 0
-59 28 -828 0
828 -841 0
-60 29 -829 0
829 -841 0
-61 30 -830 0
830 -841 0
-62 31 -831 0
831 -841 0
-63 32 -832 0
832 -841 0
-64 33 -833 0
833 -841 0
-65 34 -834 0
834 -841 0
-66 35 -835 0
835 -841 0
-67 36 -836 0
836 -841 0
-68 37 -837 0
837 -841 0
-69 38 -838 0
838 -841 0
-70 39 -839 0
839 -841 0
-71 40 -840 0
840 -841 0
841 -858 0
-26 57 -842 0
842 -857 0
-27 58 -843 0
843 -857 0
-28 59 -844 0
844 -857 0
-29 60 -845 0
845 -857 0
-30 61 -846 0
846 -857 0
-31 62 -847 0
847 -857 0
-32 63 -848 0
848 -857 0
-33 64 -849 0
849 -857 0
-34 65 -850 0
850 -857 0
-35 66 -851 0
851 -857 0
-36 67 -852 0
852 -857 0
-37 68 -853 0
853 -857 0
-38 69 -854 0
854 -857 0
-39 70 -855 0
855 -857 0
-40 71 -856 0
856 -857 0
857 -858 0
858 -859 0
757 791 825 859 -860 0
723 860 -861 0
-2 861 -862 0
862 -1145 0
49 -864 0
-56 -863 0
-55 -863 0
-54 -863 0
-53 -863 0
-52 -863 0
-51 -863 0
-50 -863 0
-48 -863 0
-47 -863 0
-46 -863 0
-45 -863 0
-44 -863 0
-43 -863 0
-42 -863 0
-41 -863 0
863 -864 0
1 -898 0
-24 -880 0
-9 42 -865 0
865 -880 0
-10 43 -866 0
866 -880 0
-11 44 -867 0
867 -880 0
-12 45 -868 0
868 -880 0
-13 46 -869 0
869 -880 0
-14 47 -870 0
870 -880 0
-15 48 -871 0
871 -880 0
-16 49 -872 0
872 -880 0
-17 50 -873 0
873 -880 0
-18 51 -874 0
874 -880 0
-19 52 -875 0
875 -880 0
-20 53 -876 0
876 -880 0
-21 54 -877 0
877 -880 0
-22 55 -878 0
878 -880 0
-23 56 -879 0
879 -880 0
880 -897 0
-42 9 -881 0
881 -896 0
-43 10 -882 0
882 -896 0
-44 11 -883 0
883 -896 0
-45 12 -884 0
884 -896 0
-46 13 -885 0
885 -896 0
-47 14 -886 0
886 -896 0
-48 15 -887 0
887 -896 0
-49 16 -888 0
888 -896 0
-50 17 -889 0
889 -896 0
-51 18 -890 0
890 -896 0
-52 19 -891 0
891 -896 0
-53 20 -892 0
892 -896 0
-54 21 -893 0
893 -896 0
-55 22 -894 0
894 -896 0
-56 23 -895 0
895 -896 0
896 -897 0
897 -898 0
2 -932 0
-40 -914 0
-25 42 -899 0
899 -914 0
-26 43 -900 0
900 -914 0
-27 44 -901 0
901 -914 0
-28 45 -902 0
902 -914 0
-29 46 -903 0
903 -914 0
-30 47 -904 0
904 -914 0
-31 48 -905 0
905 -914 0
-32 49 -906 0
906 -914 0
-33 50 -907 0
907 -914 0
-34 51 -908 0
908 -914 0
-35 52 -909 0
909 -914 0
-36 53 -910 0
910 -914 0
-37 54 -911 0
911 -914 0
-38 55 -912 0
912 -914 0
-39 56 -913 0
913 -914 0
914 -931 0
-42 25 -915 0
915 -930 0
-43 26 -916 0
916 -930 0
-44 27 -917 0
917 -930 0
-45 28 -918 0
918 -930 0
-46 29 -919 0
919 -930 0
-47 30 -920 0
920 -930 0
-48 31 -921 0
921 -930 0
-49 32 -922 0
922 -930 0
-50 33 -923 0
923 -930 0
-51 34 -924 0
924 -930 0
-52 35 -925 0
925 -930 0
-53 36 -926 0
926 -930 0
-54 37 -927 0
927 -930 0
-55 38 -928 0
928 -930 0
-56 39 -929 0
929 -930 0
930 -931 0
931 -932 0
3 -966 0
-56 -948 0
-41 42 -933 0
933 -948 0
-42 43 -934 0
934 -948 0
-43 44 -935 0
935 -948 0
-44 45 -936 0
936 -948 0
-45 46 -937 0
937 -948 0
-46 47 -938 0
938 -948 0
-47 48 -939 0
939 -948 0
-48 49 -940 0
940 -948 0
-49 50 -941 0
941 -948 0
-50 51 -942 0
942 -948 0
-51 52 -943 0
943 -948 0
-52 53 -944 0
944 -948 0
-53 54 -945 0
945 -948 0
-54 55 -946 0
946 -948 0
-55 56 -947 0
947 -948 0
948 -965 0
-42 41 -949 0
949 -964 0
-43 42 -950 0
950 -964 0
-44 43 -951 0
951 -964 0
-45 44 -952 0
952 -964 0
-46 45 -953 0
953 -964 0
-47 46 -954 0
954 -964 0
-48 47 -955 0
955 -964 0
-49 48 -956 0
956 -964 0
-50 49 -957 0
957 -964 0
-51 50 -958 0
958 -964 0
-52 51 -959 0
959 -964 0
-53 52 -960 0
960 -964 0
-54 53 -961 0
961 -964 0
-55 54 -962 0
962 -964 0
-56 55 -963 0
963 -964 0
964 -965 0
965 -966 0
4 -1000 0
-72 -982 0
-57 42 -967 0
967 -982 0
-58 43 -968 0
968 -982 0
-59 44 -969 0
969 -982 0
-60 45 -970 0
970 -982 0
-61 46 -971 0
971 -982 0
-62 47 -972 0
972 -982 0
-63 48 -973 0
973 -982 0
-64 49 -974 0
974 -982 0
-65 50 -975 0
975 -982 0
-66 51 -976 0
976 -982 0
-67 52 -977 0
977 -982 0
-68 53 -978 0
978 -982 0
-69 54 -979 0
979 -982 0
-70 55 -980 0
980 -982 0
-71 56 -981 0
981 -982 0
982 -999 0
-42 57 -983 0
983 -998 0
-43 58 -984 0
984 -998 0
-44 59 -985 0
985 -998 0
-45 60 -986 0
986 -998 0
-46 61 -987 0
987 -998 0
-47 62 -988 0
988 -998 0
-48 63 -989 0
989 -998 0
-49 64 -990 0
990 -998 0
-50 65 -991 0
991 -998 0
-51 66 -992 0
992 -998 0
-52 67 -993 0
993 -998 0
-53 68 -994 0
994 -998 0
-54 69 -995 0
995 -998 0
-55 70 -996 0
996 -998 0
-56 71 -997 0
997 -998 0
998 -999 0
999 -1000 0
898 932 966 1000 -1001 0
864 1001 -1002 0
-3 1002 -1003 0
1003 -1145 0
65 -1005 0
-72 -1004 0
-71 -1004 0
-70 -1004 0
-69 -1004 0
-68 -1004 0
-67 -1004 0
-66 -1004 0
-64 -1004 0
-63 -1004 0
-62 -1004 0
-61 -1004 0
-60 -1004 0
-59 -1004 0
-58 -1004 0
-57 -1004 0
1004 -1005 0
1 -1039 0
-24 -1021 0
-9 58 -1006 0
1006 -1021 0
-10 59 -1007 0
1007 -1021 0
-11 60 -1008 0
1008 -1021 0
-12 61 -1009 0
1009 -1021 0
-13 62 -1010 0
1010 -1021 0
-14 63 -1011 0
1011 -1021 0
-15 64 -1012 0
1012 -1021 0
-16 65 -1013 0
1013 -1021 0
-17 66 -1014 0
1014 -1021 0
-18 67 -1015 0
1015 -1021 0
-19 68 -1016 0
1016 -1021 0
-20 69 -1017 0
1017 -1021 0
-21 70 -1018 0
1018 -1021 0
-22 71 -1019 0
1019 -1021 0
-23 72 -1020 0
1020 -1021 0
1021 -1038 0
-58 9 -1022 0
1022 -1037 0
-59 10 -1023 0
1023 -1037 0
-60 11 -1024 0
1024 -1037 0
-61 12 -1025 0
1025 -1037 0
-62 13 -1026 0
1026 -1037 0
-63 14 -1027 0
1027 -1037 0
-64 15 -1028 0
1028 -1037 0
-65 16 -1029 0
1029 -1037 0
-66 17 -1030 0
1030 -1037 0
-67 18 -1031 0
1031 -1037 0
-68 19 -1032 0
1032 -1037 0
-69 20 -1033 0
1033 -1037 0
-70 21 -1034 0
1034 -1037 0
-71 22 -1035 0
1035 -1037 0
-72 23 -1036 0
1036 -1037 0
1037 -1038 0
1038 -1039 0
2 -1073 0
-40 -1055 0
-25 58 -1040 0
1040 -1055 0
-26 59 -1041 0
1041 -1055 0
-27 60 -1042 0
1042 -1055 0
-28 61 -1043 0
1043 -1055 0
-29 62 -1044 0
1044 -1055 0
-30 63 -1045 0
1045 -1055 0
-31 64 -1046 0
1046 -1055 0
-32 65 -1047 0
1047 -1055 0
-33 66 -1048 0
1048 -1055 0
-34 67 -1049 0
1049 -1055 0
-35 68 -1050 0
1050 -1055 0
-36 69 -1051 0
1051 -1055 0
-37 70 -1052 0
1052 -1055 0
-38 71 -1053 0
1053 -1055 0
-39 72 -1054 0
1054 -1055 0
1055 -1072 0
-58 25 -1056 0
1056 -1071 0
-59 26 -1057 0
1057 -1071 0
-60 27 -1058 0
1058 -1071 0
-61 28 -1059 0
1059 -1071 0
-62 29 -1060 0
1060 -1071 0
-63 30 -1061 0
1061 -1071 0
-64 31 -1062 0
1062 -1071 0
-65 32 -1063 0
1063 -1071 0
-66 33 -1064 0
1064 -1071 0
-67 34 -1065 0
1065 -1071 0
-68 35 -1066 0
1066 -1071 0
-69 36 -1067 0
1067 -1071 0
-70 37 -1068 0
1068 -1071 0
-71 38 -1069 0
1069 -1071 0
-72 39 -1070 0
1070 -1071 0
1071 -1072 0
1072 -1073 0
3 -1107 0
-56 -1089 0
-41 58 -1074 0
1074 -1089 0
-42 59 -1075 0
1075 -1089 0
-43 60 -1076 0
1076 -1089 0
-44 61 -1077 0
1077 -1089 0
-45 62 -1078 0
1078 -1089 0
-46 63 -1079 0
1079 -1089 0
-47 64 -1080 0
1080 -1089 0
-48 65 -1081 0
1081 -1089 0
-49 66 -1082 0
1082 -1089 0
-50 67 -1083 0
1083 -1089 0
-51 68 -1084 0
1084 -1089 0
-52 69 -1085 0
1085 -1089 0
-53 70 -1086 0
1086 -1089 0
-54 71 -1087 0
1087 -1089 0
-55 72 -1088 0
1088 -1089 0
1089 -1106 0
-58 41 -1090 0
1090 -1105 0
-59 42 -1091 0
1091 -1105 0
-60 43 -1092 0
1092 -1105 0
-61 44 -1093 0
1093 -1105 0
-62 45 -1094 0
1094 -1105 0
-63 46 -1095 0
1095 -1105 0
-64 47 -1096 0
1096 -1105 0
-65 48 -1097 0
1097 -1105 0
-66 49 -1098 0
1098 -1105 0
-67 50 -1099 0
1099 -1105 0
-68 51 -1100 0
1100 -1105 0
-69 52 -1101 0
1101 -1105 0
-70 53 -1102 0
1102 -1105 0
-71 54 -1103 0
1103 -1105 0
-72 55 -1104 0
1104 -1105 0
1105 -1106 0
1106 -1107 0
4 -1141 0
-72 -1123 0
-57 58 -1108 0
1108 -1123 0
-58 59 -1109 0
1109 -1123 0
-59 60 -1110 0
1110 -1123 0
-60 61 -1111 0
1111 -1123 0
-61 62 -1112 0
1112 -1123 0
-62 63 -1113 0
1113 -1123 0
-63 64 -1114 0
1114 -1123 0
-64 65 -1115 0
1115 -1123 0
-65 66 -1116 0
1116 -1123 0
-66 67 -1117 0
1117 -1123 0
-67 68 -1118 0
1118 -1123 0
-68 69 -1119 0
1119 -1123 0
-69 70 -1120 0
1120 -1123 0
-70 71 -1121 0
1121 -1123 0
-71 72 -1122 0
1122 -1123 0
1123 -1140 0
-58 57 -1124 0
1124 -1139 0
-59 58 -1125 0
1125 -1139 0
-60 59 -1126 0
1126 -1139 0
-61 60 -1127 0
1127 -1139 0
-62 61 -1128 0
1128 -1139 0
-63 62 -1129 0
1129 -1139 0
-64 63 -1130 0
1130 -1139 0
-65 64 -1131 0
1131 -1139 0
-66 65 -1132 0
1132 -1139 0
-67 66 -1133 0
1133 -1139 0
-68 67 -1134 0
1134 -1139 0
-69 68 -1135 0
1135 -1139 0
-70 69 -1136 0
1136 -1139 0
-71 70 -1137 0
1137 -1139 0
-72 71 -1138 0
1138 -1139 0
1139 -1140 0
1140 -1141 0
1039 1073 1107 1141 -1142 0
1005 1142 -1143 0
-4 1143 -1144 0
1144 -1145 0
1145 -1146 0
-1 2 -1147 0
1147 -1241 0
-1 -2 1148 0
1 2 1148 0
-2 2 1148 0
-5 6 -1149 0
-1148 1149 -1150 0
1150 -1241 0
-5 -6 1151 0
5 6 1151 0
-6 6 1151 0
-1148 -1151 1152 0
-9 25 -1153 0
-1152 1153 -1154 0
1154 -1241 0
-9 -25 1155 0
9 25 1155 0
-25 25 1155 0
-1152 -1155 1156 0
-10 26 -1157 0
-1156 1157 -1158 0
1158 -1241 0
-10 -26 1159 0
10 26 1159 0
-26 26 1159 0
-1156 -1159 1160 0
-11 27 -1161 0
-1160 1161 -1162 0
1162 -1241 0
-11 -27 1163 0
11 27 1163 0
-27 27 1163 0
-1160 -1163 1164 0
-12 28 -1165 0
-1164 1165 -1166 0
1166 -1241 0
-12 -28 1167 0
12 28 1167 0
-28 28 1167 0
-1164 -1167 1168 0
-13 29 -1169 0
-1168 1169 -1170 0
1170 -1241 0
-13 -29 1171 0
13 29 1171 0
-29 29 1171 0
-1168 -1171 1172 0
-14 30 -1173 0
-1172 1173 -1174 0
1174 -1241 0
-14 -30 1175 0
14 30 1175 0
-30 30 1175 0
-1172 -1175 1176 0
-15 31 -1177 0
-1176 1177 -1178 0
1178 -1241 0
-15 -31 1179 0
15 31 1179 0
-31 31 1179 0
-1176 -1179 1180 0
-16 32 -1181 0
-1180 1181 -1182 0
1182 -1241 0
-16 -32 1183 0
16 32 1183 0
-32 32 1183 0
-1180 -1183 1184 0
-17 33 -1185 0
-1184 1185 -1186 0
1186 -1241 0
-17 -33 1187 0
17 33 1187 0
-33 33 1187 0
-1184 -1187 1188 0
-18 34 -1189 0
-1188 1189 -1190 0
1190 -1241 0
-18 -34 1191 0
18 34 1191 0
-34 34 1191 0
-1188 -1191 1192 0
-19 35 -1193 0
-1192 1193 -1194 0
1194 -1241 0
-19 -35 1195 0
19 35 1195 0
-35 35 1195 0
-1192 -1195 1196 0
-20 36 -1197 0
-1196 1197 -1198 0
1198 -1241 0
-20 -36 1199 0
20 36 1199 0
-36 36 1199 0
-1196 -1199 1200 0
-21 37 -1201 0
-1200 1201 -1202 0
1202 -1241 0
-21 -37 1203 0
21 37 1203 0
-37 37 1203 0
-1200 -1203 1204 0
-22 38 -1205 0
-1204 1205 -1206 0
1206 -1241 0
-22 -38 1207 0
22 38 1207 0
-38 38 1207 0
-1204 -1207 1208 0
-23 39 -1209 0
-1208 1209 -1210 0
1210 -1241 0
-23 -39 1211 0
23 39 1211 0
-39 39 1211 0
-1208 -1211 1212 0
-24 40 -1213 0
-1212 1213 -1214 0
1214 -1241 0
-24 -40 1215 0
24 40 1215 0
-40 40 1215 0
-1212 -1215 1216 0
-73 78 -1217 0
-1216 1217 -1218 0
1218 -1241 0
-73 -78 1219 0
73 78 1219 0
-78 78 1219 0
-1216 -1219 1220 0
-74 77 -1221 0
-1220 1221 -1222 0
1222 -1241 0
-74 -77 1223 0
74 77 1223 0
-77 77 1223 0
-1220 -1223 1224 0
-75 79 -1225 0
-1224 1225 -1226 0
1226 -1241 0
-75 -79 1227 0
75 79 1227 0
-79 79 1227 0
-1224 -1227 1228 0
-76 80 -1229 0
-1228 1229 -1230 0
1230 -1241 0
-76 -80 1231 0
76 80 1231 0
-80 80 1231 0
-1228 -1231 1232 0
-81 82 -1233 0
-1232 1233 -1234 0
1234 -1241 0
-81 -82 1235 0
81 82 1235 0
-82 82 1235 0
-1232 -1235 1236 0
-85 86 -1237 0
-1236 1237 -1238 0
1238 -1241 0
1241 -1432 0
-2 3 -1242 0
1242 -1336 0
-2 -3 1243 0
2 3 1243 0
-3 3 1243 0
-6 7 -1244 0
-1243 1244 -1245 0
1245 -1336 0
-6 -7 1246 0
6 7 1246 0
-7 7 1246 0
-1243 -1246 1247 0
-25 41 -1248 0
-1247 1248 -1249 0
1249 -1336 0
-25 -41 1250 0
25 41 1250 0
-41 41 1250 0
-1247 -1250 1251 0
-26 42 -1252 0
-1251 1252 -1253 0
1253 -1336 0
-26 -42 1254 0
26 42 1254 0
-42 42 1254 0
-1251 -1254 1255 0
-27 43 -1256 0
-1255 1256 -1257 0
1257 -1336 0
-27 -43 1258 0
27 43 1258 0
-43 43 1258 0
-1255 -1258 1259 0
-28 44 -1260 0
-1259 1260 -1261 0
1261 -1336 0
-28 -44 1262 0
28 44 1262 0
-44 44 1262 0
-1259 -1262 1263 0
-29 45 -1264 0
-1263 1264 -1265 0
1265 -1336 0
-29 -45 1266 0
29 45 1266 0
-45 45 1266 0
-1263 -1266 1267 0
-30 46 -1268 0
-1267 1268 -1269 0
1269 -1336 0
-30 -46 1270 0
30 46 1270 0
-46 46 1270 0
-1267 -1270 1271 0
-31 47 -1272 0
-1271 1272 -1273 0
1273 -1336 0
-31 -47 1274 0
31 47 1274 0
-47 47 1274 0
-1271 -1274 1275 0
-32 48 -1276 0
-1275 1276 -1277 0
1277 -1336 0
-32 -48 1278 0
32 48 1278 0
-48 48 1278 0
-1275 -1278 1279 0
-33 49 -1280 0
-1279 1280 -1281 0
1281 -1336 0
-33 -49 1282 0
33 49 1282 0
-49 49 1282 0
-1279 -1282 1283 0
-34 50 -1284 0
-1283 1284 -1285 0
1285 -1336 0
-34 -50 1286 0
34 50 1286 0
-50 50 1286 0
-1283 -1286 1287 0
-35 51 -1288 0
-1287 1288 -1289 0
1289 -1336 0
-35 -51 1290 0
35 51 1290 0
-51 51 1290 0
-1287 -1290 1291 0
-36 52 -1292 0
-1291 1292 -1293 0
1293 -1336 0
-36 -52 1294 0
36 52 1294 0
-52 52 1294 0
-1291 -1294 1295 0
-37 53 -1296 0
-1295 1296 -1297 0
1297 -1336 0
-37 -53 1298 0
37 53 1298 0
-53 53 1298 0
-1295 -1298 1299 0
-38 54 -1300 0
-1299 1300 -1301 0
1301 -1336 0
-38 -54 1302 0
38 54 1302 0
-54 54 1302 0
-1299 -1302 1303 0
-39 55 -1304 0
-1303 1304 -1305 0
1305 -1336 0
-39 -55 1306 0
39 55 1306 0
-55 55 1306 0
-1303 -1306 1307 0
-40 56 -1308 0
-1307 1308 -1309 0
1309 -1336 0
-40 -56 1310 0
40 56 1310 0
-56 56 1310 0
-1307 -1310 1311 0
-74 75 -1312 0
-1311 1312 -1313 0
1313 -1336 0
-74 -75 1314 0
74 75 1314 0
-75 75 1314 0
-1311 -1314 1315 0
-77 81 -1316 0
-1315 1316 -1317 0
1317 -1336 0
-77 -81 1318 0
77 81 1318 0
-81 81 1318 0
-1315 -1318 1319 0
-78 83 -1320 0
-1319 1320 -1321 0
1321 -1336 0
-78 -83 1322 0
78 83 1322 0
-83 83 1322 0
-1319 -1322 1323 0
-79 82 -1324 0
-1323 1324 -1325 0
1325 -1336 0
-79 -82 1326 0
79 82 1326 0
-82 82 1326 0
-1323 -1326 1327 0
-80 84 -1328 0
-1327 1328 -1329 0
1329 -1336 0
-80 -84 1330 0
80 84 1330 0
-84 84 1330 0
-1327 -1330 1331 0
-86 87 -1332 0
-1331 1332 -1333 0
1333 -1336 0
1336 -1432 0
-3 4 -1337 0
1337 -1431 0
-3 -4 1338 0
3 4 1338 0
-4 4 1338 0
-7 8 -1339 0
-1338 1339 -1340 0
1340 -1431 0
-7 -8 1341 0
7 8 1341 0
-8 8 1341 0
-1338 -1341 1342 0
-41 57 -1343 0
-1342 1343 -1344 0
1344 -1431 0
-41 -57 1345 0
41 57 1345 0
-57 57 1345 0
-1342 -1345 1346 0
-42 58 -1347 0
-1346 1347 -1348 0
1348 -1431 0
-42 -58 1349 0
42 58 1349 0
-58 58 1349 0
-1346 -1349 1350 0
-43 59 -1351 0
-1350 1351 -1352 0
1352 -1431 0
-43 -59 1353 0
43 59 1353 0
-59 59 1353 0
-1350 -1353 1354 0
-44 60 -1355 0
-1354 1355 -1356 0
1356 -1431 0
-44 -60 1357 0
44 60 1357 0
-60 60 1357 0
-1354 -1357 1358 0
-45 61 -1359 0
-1358 1359 -1360 0
1360 -1431 0
-45 -61 1361 0
45 61 1361 0
-61 61 1361 0
-1358 -1361 1362 0
-46 62 -1363 0
-1362 1363 -1364 0
1364 -1431 0
-46 -62 1365 0
46 62 1365 0
-62 62 1365 0
-1362 -1365 1366 0
-47 63 -1367 0
-1366 1367 -1368 0
1368 -1431 0
-47 -63 1369 0
47 63 1369 0
-63 63 1369 0
-1366 -1369 1370 0
-48 64 -1371 0
-1370 1371 -1372 0
1372 -1431 0
-48 -64 1373 0
48 64 1373 0
-64 64 1373 0
-1370 -1373 1374 0
-49 65 -1375 0
-1374 1375 -1376 0
1376 -1431 0
-49 -65 1377 0
49 65 1377 0
-65 65 1377 0
-1374 -1377 1378 0
-50 66 -1379 0
-1378 1379 -1380 0
1380 -1431 0
-50 -66 1381 0
50 66 1381 0
-66 66 1381 0
-1378 -1381 1382 0
-51 67 -1383 0
-1382 1383 -1384 0
1384 -1431 0
-51 -67 1385 0
51 67 1385 0
-67 67 1385 0
-1382 -1385 1386 0
-52 68 -1387 0
-1386 1387 -1388 0
1388 -1431 0
-52 -68 1389 0
52 68 1389 0
-68 68 1389 0
-1386 -1389 1390 0
-53 69 -1391 0
-1390 1391 -1392 0
1392 -1431 0
-53 -69 1393 0
53 69 1393 0
-69 69 1393 0
-1390 -1393 1394 0
-54 70 -1395 0
-1394 1395 -1396 0
1396 -1431 0
-54 -70 1397 0
54 70 1397 0
-70 70 1397 0
-1394 -1397 1398 0
-55 71 -1399 0
-1398 1399 -1400 0
1400 -1431 0
-55 -71 1401 0
55 71 1401 0
-71 71 1401 0
-1398 -1401 1402 0
-56 72 -1403 0
-1402 1403 -1404 0
1404 -1431 0
-56 -72 1405 0
56 72 1405 0
-72 72 1405 0
-1402 -1405 1406 0
-75 76 -1407 0
-1406 1407 -1408 0
1408 -1431 0
-75 -76 1409 0
75 76 1409 0
-76 76 1409 0
-1406 -1409 1410 0
-79 80 -1411 0
-1410 1411 -1412 0
1412 -1431 0
-79 -80 1413 0
79 80 1413 0
-80 80 1413 0
-1410 -1413 1414 0
-81 85 -1415 0
-1414 1415 -1416 0
1416 -1431 0
-81 -85 1417 0
81 85 1417 0
-85 85 1417 0
-1414 -1417 1418 0
-82 86 -1419 0
-1418 1419 -1420 0
1420 -1431 0
-82 -86 1421 0
82 86 1421 0
-86 86 1421 0
-1418 -1421 1422 0
-83 88 -1423 0
-1422 1423 -1424 0
1424 -1431 0
-83 -88 1425 0
83 88 1425 0
-88 88 1425 0
-1422 -1425 1426 0
-84 87 -1427 0
-1426 1427 -1428 0
1428 -1431 0
1431 -1432 0
1146 0
1432 0
c ind 1 2 3 4 5 6 7 8 9 10 11 12 13 14 15 16 17 18 19 20 21 22 23 24 25 26 27 28 29 30 31 32 33 34 35 36 37 38 39 40 41 42 43 44 45 46 47 48 49 50 51 52 53 54 55 56 57 58 59 60 61 62 63 64 65 66 67 68 69 70 71 72 73 74 75 76 77 78 79 80 81 82 83 84 85 86 87 88 0
