p cnf 560 1217              
-6 -5 -41 0
41 -47 0
-5 42 0
-6 42 0
-42 -7 -43 0
43 -47 0
-7 44 0
-42 44 0
-44 -8 -45 0
45 -47 0
47 -53 0
-5 1 -48 0
48 -52 0
-6 2 -49 0
49 -52 0
-7 3 -50 0
50 -52 0
-8 4 -51 0
51 -52 0
52 -53 0
53 -393 0
-10 -9 -54 0
54 -60 0
-9 55 0
-10 55 0
-55 -11 -56 0
56 -60 0
-11 57 0
-55 57 0
-57 -12 -58 0
58 -60 0
60 -66 0
-9 1 -61 0
61 -65 0
-10 2 -62 0
62 -65 0
-11 3 -63 0
63 -65 0
-12 4 -64 0
64 -65 0
65 -66 0
-1 66 -67 0
67 -110 0
-14 -13 -68 0
68 -74 0
-13 69 0
-14 69 0
-69 -15 -70 0
70 -74 0
-15 71 0
-69 71 0
-71 -16 -72 0
72 -74 0
74 -80 0
-13 1 -75 0
75 -79 0
-14 2 -76 0
76 -79 0
-15 3 -77 0
77 -79 0
-16 4 -78 0
78 -79 0
79 -80 0
-2 80 -81 0
81 -110 0
-18 -17 -82 0
82 -88 0
-17 83 0
-18 83 0
-83 -19 -84 0
84 -88 0
-19 85 0
-83 85 0
-85 -20 -86 0
86 -88 0
88 -94 0
-17 1 -89 0
89 -93 0
-18 2 -90 0
90 -93 0
-19 3 -91 0
91 -93 0
-20 4 -92 0
92 -93 0
93 -94 0
-3 94 -95 0
95 -110 0
-22 -21 -96 0
96 -102 0
-21 97 0
-22 97 0
-97 -23 -98 0
98 -102 0
-23 99 0
-97 99 0
-99 -24 -100 0
100 -102 0
102 -108 0
-21 1 -103 0
103 -107 0
-22 2 -104 0
104 -107 0
-23 3 -105 0
105 -107 0
-24 4 -106 0
106 -107 0
107 -108 0
-4 108 -109 0
109 -110 0
110 -393 0
-12 59 0
-57 59 0
-59 1 -111 0
111 -115 0
-16 73 0
-71 73 0
-73 2 -112 0
112 -115 0
-20 87 0
-85 87 0
-87 3 -113 0
113 -115 0
-24 101 0
-99 101 0
-101 4 -114 0
114 -115 0
115 -393 0
-26 -25 -116 0
116 -122 0
-25 117 0
-26 117 0
-117 -27 -118 0
118 -122 0
-27 119 0
-117 119 0
-119 -28 -120 0
120 -122 0
122 -128 0
-25 1 -123 0
123 -127 0
-26 2 -124 0
124 -127 0
-27 3 -125 0
125 -127 0
-28 4 -126 0
126 -127 0
127 -128 0
-1 128 -129 0
129 -172 0
-30 -29 -130 0
130 -136 0
-29 131 0
-30 131 0
-131 -31 -132 0
132 -136 0
-31 133 0
-131 133 0
-133 -32 -134 0
134 -136 0
136 -142 0
-29 1 -137 0
137 -141 0
-30 2 -138 0
138 -141 0
-31 3 -139 0
139 -141 0
-32 4 -140 0
140 -141 0
141 -142 0
-2 142 -143 0
143 -172 0
-34 -33 -144 0
144 -150 0
-33 145 0
-34 145 0
-145 -35 -146 0
146 -150 0
-35 147 0
-145 147 0
-147 -36 -148 0
148 -150 0
150 -156 0
-33 1 -151 0
151 -155 0
-34 2 -152 0
152 -155 0
-35 3 -153 0
153 -155 0
-36 4 -154 0
154 -155 0
155 -156 0
-3 156 -157 0
157 -172 0
-38 -37 -158 0
158 -164 0
-37 159 0
-38 159 0
-159 -39 -160 0
160 -164 0
-39 161 0
-159 161 0
-161 -40 -162 0
162 -164 0
164 -170 0
-37 1 -165 0
165 -169 0
-38 2 -166 0
166 -169 0
-39 3 -167 0
167 -169 0
-40 4 -168 0
168 -169 0
169 -170 0
-4 170 -171 0
171 -172 0
172 -393 0
-28 121 0
-119 121 0
-121 1 -173 0
173 -177 0
-32 135 0
-133 135 0
-135 2 -174 0
174 -177 0
-36 149 0
-147 149 0
-149 3 -175 0
175 -177 0
-40 163 0
-161 163 0
-163 4 -176 0
176 -177 0
177 -393 0
5 -362 0
-1 358 0
-9 178 0
-25 178 0
9 25 -178 0
-178 248 0
-10 179 0
-26 179 0
10 26 -179 0
179 -197 0
-13 182 0
-29 182 0
13 29 -182 0
182 -197 0
-179 -182 197 0
-197 248 0
-11 180 0
-27 180 0
11 27 -180 0
180 -201 0
-17 186 0
-33 186 0
17 33 -186 0
186 -201 0
-180 -186 201 0
-201 248 0
-12 181 0
-28 181 0
12 28 -181 0
181 -205 0
-21 190 0
-37 190 0
21 37 -190 0
190 -205 0
-181 -190 205 0
-205 248 0
178 197 201 205 -248 0
-248 330 0
-179 264 0
178 -194 0
179 -194 0
-178 -179 194 0
-194 249 0
179 -198 0
-14 183 0
-30 183 0
14 30 -183 0
183 -198 0
-179 -183 198 0
-198 249 0
180 -202 0
-18 187 0
-34 187 0
18 34 -187 0
187 -202 0
-180 -187 202 0
-202 249 0
181 -206 0
-22 191 0
-38 191 0
22 38 -191 0
191 -206 0
-181 -191 206 0
-206 249 0
194 198 202 206 -249 0
-249 264 0
179 249 -264 0
264 -279 0
-182 267 0
178 -209 0
182 -209 0
-178 -182 209 0
-209 252 0
182 -212 0
183 -212 0
-182 -183 212 0
-212 252 0
-15 184 0
-31 184 0
15 31 -184 0
184 -215 0
186 -215 0
-184 -186 215 0
-215 252 0
-16 185 0
-32 185 0
16 32 -185 0
185 -219 0
190 -219 0
-185 -190 219 0
-219 252 0
209 212 215 219 -252 0
-252 267 0
182 252 -267 0
267 -279 0
-264 -267 279 0
-279 330 0
-180 265 0
178 -195 0
180 -195 0
-178 -180 195 0
-195 250 0
179 -199 0
184 -199 0
-179 -184 199 0
-199 250 0
180 -203 0
-19 188 0
-35 188 0
19 35 -188 0
188 -203 0
-180 -188 203 0
-203 250 0
181 -207 0
-23 192 0
-39 192 0
23 39 -192 0
192 -207 0
-181 -192 207 0
-207 250 0
195 199 203 207 -250 0
-250 265 0
180 250 -265 0
265 -283 0
-186 270 0
178 -223 0
186 -223 0
-178 -186 223 0
-223 256 0
182 -226 0
187 -226 0
-182 -187 226 0
-226 256 0
186 -229 0
188 -229 0
-186 -188 229 0
-229 256 0
-20 189 0
-36 189 0
20 36 -189 0
189 -232 0
190 -232 0
-189 -190 232 0
-232 256 0
223 226 229 232 -256 0
-256 270 0
186 256 -270 0
270 -283 0
-265 -270 283 0
-283 330 0
-181 266 0
178 -196 0
181 -196 0
-178 -181 196 0
-196 251 0
179 -200 0
185 -200 0
-179 -185 200 0
-200 251 0
180 -204 0
189 -204 0
-180 -189 204 0
-204 251 0
181 -208 0
-24 193 0
-40 193 0
24 40 -193 0
193 -208 0
-181 -193 208 0
-208 251 0
196 200 204 208 -251 0
-251 266 0
181 251 -266 0
266 -287 0
-190 273 0
178 -236 0
190 -236 0
-178 -190 236 0
-236 260 0
182 -239 0
191 -239 0
-182 -191 239 0
-239 260 0
186 -242 0
192 -242 0
-186 -192 242 0
-242 260 0
190 -245 0
193 -245 0
-190 -193 245 0
-245 260 0
236 239 242 245 -260 0
-260 273 0
190 260 -273 0
273 -287 0
-266 -273 287 0
-287 330 0
248 279 283 287 -330 0
-330 358 0
1 330 -358 0
358 -362 0
-5 -358 362 0
-362 378 0
6 -366 0
-267 349 0
248 -291 0
267 -291 0
-248 -267 291 0
-291 334 0
-183 253 0
-197 253 0
184 -216 0
187 -216 0
-184 -187 216 0
-216 253 0
185 -220 0
191 -220 0
-185 -191 220 0
-220 253 0
183 197 216 220 -253 0
253 -294 0
267 -294 0
-253 -267 294 0
-294 334 0
-184 268 0
180 -210 0
182 -210 0
-180 -182 210 0
-210 254 0
183 -213 0
184 -213 0
-183 -184 213 0
-213 254 0
184 -217 0
188 -217 0
-184 -188 217 0
-217 254 0
185 -221 0
192 -221 0
-185 -192 221 0
-221 254 0
210 213 217 221 -254 0
-254 268 0
184 254 -268 0
268 -297 0
270 -297 0
-268 -270 297 0
-297 334 0
-185 269 0
181 -211 0
182 -211 0
-181 -182 211 0
-211 255 0
183 -214 0
185 -214 0
-183 -185 214 0
-214 255 0
184 -218 0
189 -218 0
-184 -189 218 0
-218 255 0
185 -222 0
193 -222 0
-185 -193 222 0
-222 255 0
211 214 218 222 -255 0
-255 269 0
185 255 -269 0
269 -301 0
273 -301 0
-269 -273 301 0
-301 334 0
291 294 297 301 -334 0
-334 349 0
267 334 -349 0
349 -366 0
-6 -349 366 0
-366 378 0
7 -370 0
-270 352 0
248 -305 0
270 -305 0
-248 -270 305 0
-305 338 0
267 -308 0
-187 271 0
179 -224 0
186 -224 0
-179 -186 224 0
-224 257 0
183 -227 0
187 -227 0
-183 -187 227 0
-227 257 0
187 -230 0
188 -230 0
-187 -188 230 0
-230 257 0
189 -233 0
191 -233 0
-189 -191 233 0
-233 257 0
224 227 230 233 -257 0
-257 271 0
187 257 -271 0
271 -308 0
-267 -271 308 0
-308 338 0
-188 258 0
-201 258 0
-216 258 0
189 -234 0
192 -234 0
-189 -192 234 0
-234 258 0
188 201 216 234 -258 0
258 -311 0
270 -311 0
-258 -270 311 0
-311 338 0
-189 272 0
181 -225 0
186 -225 0
-181 -186 225 0
-225 259 0
185 -228 0
187 -228 0
-185 -187 228 0
-228 259 0
188 -231 0
189 -231 0
-188 -189 231 0
-231 259 0
189 -235 0
193 -235 0
-189 -193 235 0
-235 259 0
225 228 231 235 -259 0
-259 272 0
189 259 -272 0
272 -314 0
273 -314 0
-272 -273 314 0
-314 338 0
305 308 311 314 -338 0
-338 352 0
270 338 -352 0
352 -370 0
-7 -352 370 0
-370 378 0
8 -374 0
-273 355 0
248 -318 0
273 -318 0
-248 -273 318 0
-318 342 0
267 -321 0
-191 274 0
179 -237 0
190 -237 0
-179 -190 237 0
-237 261 0
183 -240 0
191 -240 0
-183 -191 240 0
-240 261 0
187 -243 0
192 -243 0
-187 -192 243 0
-243 261 0
191 -246 0
193 -246 0
-191 -193 246 0
-246 261 0
237 240 243 246 -261 0
-261 274 0
191 261 -274 0
274 -321 0
-267 -274 321 0
-321 342 0
270 -324 0
-192 275 0
180 -238 0
190 -238 0
-180 -190 238 0
-238 262 0
184 -241 0
191 -241 0
-184 -191 241 0
-241 262 0
188 -244 0
192 -244 0
-188 -192 244 0
-244 262 0
192 -247 0
193 -247 0
-192 -193 247 0
-247 262 0
238 241 244 247 -262 0
-262 275 0
192 262 -275 0
275 -324 0
-270 -275 324 0
-324 342 0
-193 263 0
-205 263 0
-220 263 0
-234 263 0
193 205 220 234 -263 0
263 -327 0
273 -327 0
-263 -273 327 0
-327 342 0
318 321 324 327 -342 0
-342 355 0
273 342 -355 0
355 -374 0
-8 -355 374 0
-374 378 0
362 366 370 374 -378 0
-378 1 -382 0
382 -386 0
5 -363 0
-264 346 0
248 -276 0
264 -276 0
-248 -264 276 0
-276 331 0
253 -280 0
264 -280 0
-253 -264 280 0
-280 331 0
265 -284 0
271 -284 0
-265 -271 284 0
-284 331 0
266 -288 0
274 -288 0
-266 -274 288 0
-288 331 0
276 280 284 288 -331 0
-331 346 0
264 331 -346 0
346 -363 0
-5 -346 363 0
-363 379 0
6 -367 0
-2 359 0
-253 335 0
-279 335 0
268 -298 0
271 -298 0
-268 -271 298 0
-298 335 0
269 -302 0
274 -302 0
-269 -274 302 0
-302 335 0
253 279 298 302 -335 0
-335 359 0
2 335 -359 0
359 -367 0
-6 -359 367 0
-367 379 0
7 -371 0
-271 353 0
264 -306 0
270 -306 0
-264 -270 306 0
-306 339 0
253 -309 0
271 -309 0
-253 -271 309 0
-309 339 0
258 -312 0
271 -312 0
-258 -271 312 0
-312 339 0
272 -315 0
274 -315 0
-272 -274 315 0
-315 339 0
306 309 312 315 -339 0
-339 353 0
271 339 -353 0
353 -371 0
-7 -353 371 0
-371 379 0
8 -375 0
-274 356 0
264 -319 0
273 -319 0
-264 -273 319 0
-319 343 0
253 -322 0
274 -322 0
-253 -274 322 0
-322 343 0
271 -325 0
275 -325 0
-271 -275 325 0
-325 343 0
263 -328 0
274 -328 0
-263 -274 328 0
-328 343 0
319 322 325 328 -343 0
-343 356 0
274 343 -356 0
356 -375 0
-8 -356 375 0
-375 379 0
363 367 371 375 -379 0
-379 2 -383 0
383 -386 0
5 -364 0
-265 347 0
248 -277 0
265 -277 0
-248 -265 277 0
-277 332 0
264 -281 0
268 -281 0
-264 -268 281 0
-281 332 0
258 -285 0
265 -285 0
-258 -265 285 0
-285 332 0
266 -289 0
275 -289 0
-266 -275 289 0
-289 332 0
277 281 285 289 -332 0
-332 347 0
265 332 -347 0
347 -364 0
-5 -347 364 0
-364 380 0
6 -368 0
-268 350 0
265 -292 0
267 -292 0
-265 -267 292 0
-292 336 0
253 -295 0
268 -295 0
-253 -268 295 0
-295 336 0
258 -299 0
268 -299 0
-258 -268 299 0
-299 336 0
269 -303 0
275 -303 0
-269 -275 303 0
-303 336 0
292 295 299 303 -336 0
-336 350 0
268 336 -350 0
350 -368 0
-6 -350 368 0
-368 380 0
7 -372 0
-3 360 0
-258 340 0
-283 340 0
-298 340 0
272 -316 0
275 -316 0
-272 -275 316 0
-316 340 0
258 283 298 316 -340 0
-340 360 0
3 340 -360 0
360 -372 0
-7 -360 372 0
-372 380 0
8 -376 0
-275 357 0
265 -320 0
273 -320 0
-265 -273 320 0
-320 344 0
268 -323 0
274 -323 0
-268 -274 323 0
-323 344 0
258 -326 0
275 -326 0
-258 -275 326 0
-326 344 0
263 -329 0
275 -329 0
-263 -275 329 0
-329 344 0
320 323 326 329 -344 0
-344 357 0
275 344 -357 0
357 -376 0
-8 -357 376 0
-376 380 0
364 368 372 376 -380 0
-380 3 -384 0
384 -386 0
5 -365 0
-266 348 0
248 -278 0
266 -278 0
-248 -266 278 0
-278 333 0
264 -282 0
269 -282 0
-264 -269 282 0
-282 333 0
265 -286 0
272 -286 0
-265 -272 286 0
-286 333 0
263 -290 0
266 -290 0
-263 -266 290 0
-290 333 0
278 282 286 290 -333 0
-333 348 0
266 333 -348 0
348 -365 0
-5 -348 365 0
-365 381 0
6 -369 0
-269 351 0
266 -293 0
267 -293 0
-266 -267 293 0
-293 337 0
253 -296 0
269 -296 0
-253 -269 296 0
-296 337 0
268 -300 0
272 -300 0
-268 -272 300 0
-300 337 0
263 -304 0
269 -304 0
-263 -269 304 0
-304 337 0
293 296 300 304 -337 0
-337 351 0
269 337 -351 0
351 -369 0
-6 -351 369 0
-369 381 0
7 -373 0
-272 354 0
266 -307 0
270 -307 0
-266 -270 307 0
-307 341 0
269 -310 0
271 -310 0
-269 -271 310 0
-310 341 0
258 -313 0
272 -313 0
-258 -272 313 0
-313 341 0
263 -317 0
272 -317 0
-263 -272 317 0
-317 341 0
307 310 313 317 -341 0
-341 354 0
272 341 -354 0
354 -373 0
-7 -354 373 0
-373 381 0
8 -377 0
-4 361 0
-263 345 0
-287 345 0
-302 345 0
-316 345 0
263 287 302 316 -345 0
-345 361 0
4 345 -361 0
361 -377 0
-8 -361 377 0
-377 381 0
365 369 373 377 -381 0
-381 4 -385 0
385 -386 0
386 -392 0
-1 378 -387 0
387 -391 0
-2 379 -388 0
388 -391 0
-3 380 -389 0
389 -391 0
-4 381 -390 0
390 -391 0
391 -392 0
392 -393 0
-5 6 -394 0
394 -448 0
-5 -6 395 0
5 6 395 0
-6 6 395 0
-1 2 -396 0
-395 396 -397 0
397 -448 0
-1 -2 398 0
1 2 398 0
-2 2 398 0
-395 -398 399 0
-9 14 -400 0
-399 400 -401 0
401 -448 0
-9 -14 402 0
9 14 402 0
-14 14 402 0
-399 -402 403 0
-10 13 -404 0
-403 404 -405 0
405 -448 0
-10 -13 406 0
10 13 406 0
-13 13 406 0
-403 -406 407 0
-11 15 -408 0
-407 408 -409 0
409 -448 0
-11 -15 410 0
11 15 410 0
-15 15 410 0
-407 -410 411 0
-12 16 -412 0
-411 412 -413 0
413 -448 0
-12 -16 414 0
12 16 414 0
-16 16 414 0
-411 -414 415 0
-17 18 -416 0
-415 416 -417 0
417 -448 0
-17 -18 418 0
17 18 418 0
-18 18 418 0
-415 -418 419 0
-21 22 -420 0
-419 420 -421 0
421 -448 0
-21 -22 422 0
21 22 422 0
-22 22 422 0
-419 -422 423 0
-25 30 -424 0
-423 424 -425 0
425 -448 0
-25 -30 426 0
25 30 426 0
-30 30 426 0
-423 -426 427 0
-26 29 -428 0
-427 428 -429 0
429 -448 0
-26 -29 430 0
26 29 430 0
-29 29 430 0
-427 -430 431 0
-27 31 -432 0
-431 432 -433 0
433 -448 0
-27 -31 434 0
27 31 434 0
-31 31 434 0
-431 -434 435 0
-28 32 -436 0
-435 436 -437 0
437 -448 0
-28 -32 438 0
28 32 438 0
-32 32 438 0
-435 -438 439 0
-33 34 -440 0
-439 440 -441 0
441 -448 0
-33 -34 442 0
33 34 442 0
-34 34 442 0
-439 -442 443 0
-37 38 -444 0
-443 444 -445 0
445 -448 0
448 -559 0
-6 7 -449 0
449 -503 0
-6 -7 450 0
6 7 450 0
-7 7 450 0
-2 3 -451 0
-450 451 -452 0
452 -503 0
-2 -3 453 0
2 3 453 0
-3 3 453 0
-450 -453 454 0
-10 11 -455 0
-454 455 -456 0
456 -503 0
-10 -11 457 0
10 11 457 0
-11 11 457 0
-454 -457 458 0
-13 17 -459 0
-458 459 -460 0
460 -503 0
-13 -17 461 0
13 17 461 0
-17 17 461 0
-458 -461 462 0
-14 19 -463 0
-462 463 -464 0
464 -503 0
-14 -19 465 0
14 19 465 0
-19 19 465 0
-462 -465 466 0
-15 18 -467 0
-466 467 -468 0
468 -503 0
-15 -18 469 0
15 18 469 0
-18 18 469 0
-466 -469 470 0
-16 20 -471 0
-470 471 -472 0
472 -503 0
-16 -20 473 0
16 20 473 0
-20 20 473 0
-470 -473 474 0
-22 23 -475 0
-474 475 -476 0
476 -503 0
-22 -23 477 0
22 23 477 0
-23 23 477 0
-474 -477 478 0
-26 27 -479 0
-478 479 -480 0
480 -503 0
-26 -27 481 0
26 27 481 0
-27 27 481 0
-478 -481 482 0
-29 33 -483 0
-482 483 -484 0
484 -503 0
-29 -33 485 0
29 33 485 0
-33 33 485 0
-482 -485 486 0
-30 35 -487 0
-486 487 -488 0
488 -503 0
-30 -35 489 0
30 35 489 0
-35 35 489 0
-486 -489 490 0
-31 34 -491 0
-490 491 -492 0
492 -503 0
-31 -34 493 0
31 34 493 0
-34 34 493 0
-490 -493 494 0
-32 36 -495 0
-494 495 -496 0
496 -503 0
-32 -36 497 0
32 36 497 0
-36 36 497 0
-494 -497 498 0
-38 39 -499 0
-498 499 -500 0
500 -503 0
503 -559 0
-7 8 -504 0
504 -558 0
-7 -8 505 0
7 8 505 0
-8 8 505 0
-3 4 -506 0
-505 506 -507 0
507 -558 0
-3 -4 508 0
3 4 508 0
-4 4 508 0
-505 -508 509 0
-11 12 -510 0
-509 510 -511 0
511 -558 0
-11 -12 512 0
11 12 512 0
-12 12 512 0
-509 -512 513 0
-15 16 -514 0
-513 514 -515 0
515 -558 0
-15 -16 516 0
15 16 516 0
-16 16 516 0
-513 -516 517 0
-17 21 -518 0
-517 518 -519 0
519 -558 0
-17 -21 520 0
17 21 520 0
-21 21 520 0
-517 -520 521 0
-18 22 -522 0
-521 522 -523 0
523 -558 0
-18 -22 524 0
18 22 524 0
-22 22 524 0
-521 -524 525 0
-19 24 -526 0
-525 526 -527 0
527 -558 0
-19 -24 528 0
19 24 528 0
-24 24 528 0
-525 -528 529 0
-20 23 -530 0
-529 530 -531 0
531 -558 0
-20 -23 532 0
20 23 532 0
-23 23 532 0
-529 -532 533 0
-27 28 -534 0
-533 534 -535 0
535 -558 0
-27 -28 536 0
27 28 536 0
-28 28 536 0
-533 -536 537 0
-31 32 -538 0
-537 538 -539 0
539 -558 0
-31 -32 540 0
31 32 540 0
-32 32 540 0
-537 -540 541 0
-33 37 -542 0
-541 542 -543 0
543 -558 0
-33 -37 544 0
33 37 544 0
-37 37 544 0
-541 -544 545 0
-34 38 -546 0
-545 546 -547 0
547 -558 0
-34 -38 548 0
34 38 548 0
-38 38 548 0
-545 -548 549 0
-35 40 -550 0
-549 550 -551 0
551 -558 0
-35 -40 552 0
35 40 552 0
-40 40 552 0
-549 -552 553 0
-36 39 -554 0
-553 554 -555 0
555 -558 0
558 -559 0
393 0
559 0
c ind 1 2 3 4 5 6 7 8 9 10 11 12 13 14 15 16 17 18 19 20 21 22 23 24 25 26 27 28 29 30 31 32 33 34 35 36 37 38 39 40 0
