p cnf 675 1369              
-6 -5 -61 0
61 -67 0
-5 62 0
-6 62 0
5 6 -62 0
-62 -7 -63 0
63 -67 0
-7 64 0
-62 64 0
7 62 -64 0
-64 -8 -65 0
65 -67 0
8 64 -66 0
66 -67 0
67 -73 0
-5 1 -68 0
68 -72 0
-6 2 -69 0
69 -72 0
-7 3 -70 0
70 -72 0
-8 4 -71 0
71 -72 0
72 -73 0
73 -448 0
-10 -9 -74 0
74 -80 0
-9 75 0
-10 75 0
9 10 -75 0
-75 -11 -76 0
76 -80 0
-11 77 0
-75 77 0
11 75 -77 0
-77 -12 -78 0
78 -80 0
12 77 -79 0
79 -80 0
80 -86 0
-9 1 -81 0
81 -85 0
-10 2 -82 0
82 -85 0
-11 3 -83 0
83 -85 0
-12 4 -84 0
84 -85 0
85 -86 0
86 -448 0
-14 -13 -87 0
87 -93 0
-13 88 0
-14 88 0
-88 -15 -89 0
89 -93 0
-15 90 0
-88 90 0
-90 -16 -91 0
91 -93 0
-1 93 -94 0
94 -119 0
-18 -17 -95 0
95 -101 0
-17 96 0
-18 96 0
-96 -19 -97 0
97 -101 0
-19 98 0
-96 98 0
-98 -20 -99 0
99 -101 0
-2 101 -102 0
102 -119 0
-22 -21 -103 0
103 -109 0
-21 104 0
-22 104 0
-104 -23 -105 0
105 -109 0
-23 106 0
-104 106 0
-106 -24 -107 0
107 -109 0
-3 109 -110 0
110 -119 0
-26 -25 -111 0
111 -117 0
-25 112 0
-26 112 0
-112 -27 -113 0
113 -117 0
-27 114 0
-112 114 0
-114 -28 -115 0
115 -117 0
-4 117 -118 0
118 -119 0
119 -448 0
-16 92 0
-90 92 0
-92 1 -120 0
120 -124 0
-20 100 0
-98 100 0
-100 2 -121 0
121 -124 0
-24 108 0
-106 108 0
-108 3 -122 0
122 -124 0
-28 116 0
-114 116 0
-116 4 -123 0
123 -124 0
124 -448 0
-30 -29 -125 0
125 -131 0
-29 126 0
-30 126 0
-126 -31 -127 0
127 -131 0
-31 128 0
-126 128 0
-128 -32 -129 0
129 -131 0
131 -137 0
-29 1 -132 0
132 -136 0
-30 2 -133 0
133 -136 0
-31 3 -134 0
134 -136 0
-32 4 -135 0
135 -136 0
136 -137 0
-1 137 -138 0
138 -181 0
-34 -33 -139 0
139 -145 0
-33 140 0
-34 140 0
-140 -35 -141 0
141 -145 0
-35 142 0
-140 142 0
-142 -36 -143 0
143 -145 0
145 -151 0
-33 1 -146 0
146 -150 0
-34 2 -147 0
147 -150 0
-35 3 -148 0
148 -150 0
-36 4 -149 0
149 -150 0
150 -151 0
-2 151 -152 0
152 -181 0
-38 -37 -153 0
153 -159 0
-37 154 0
-38 154 0
-154 -39 -155 0
155 -159 0
-39 156 0
-154 156 0
-156 -40 -157 0
157 -159 0
159 -165 0
-37 1 -160 0
160 -164 0
-38 2 -161 0
161 -164 0
-39 3 -162 0
162 -164 0
-40 4 -163 0
163 -164 0
164 -165 0
-3 165 -166 0
166 -181 0
-42 -41 -167 0
167 -173 0
-41 168 0
-42 168 0
-168 -43 -169 0
169 -173 0
-43 170 0
-168 170 0
-170 -44 -171 0
171 -173 0
173 -179 0
-41 1 -174 0
174 -178 0
-42 2 -175 0
175 -178 0
-43 3 -176 0
176 -178 0
-44 4 -177 0
177 -178 0
178 -179 0
-4 179 -180 0
180 -181 0
181 -448 0
-32 130 0
-128 130 0
-130 1 -182 0
182 -186 0
-36 144 0
-142 144 0
-144 2 -183 0
183 -186 0
-40 158 0
-156 158 0
-158 3 -184 0
184 -186 0
-44 172 0
-170 172 0
-172 4 -185 0
185 -186 0
186 -448 0
-46 -45 -187 0
187 -193 0
-45 188 0
-46 188 0
-188 -47 -189 0
189 -193 0
-47 190 0
-188 190 0
-190 -48 -191 0
191 -193 0
193 -199 0
-45 1 -194 0
194 -198 0
-46 2 -195 0
195 -198 0
-47 3 -196 0
196 -198 0
-48 4 -197 0
197 -198 0
198 -199 0
-1 199 -200 0
200 -243 0
-50 -49 -201 0
201 -207 0
-49 202 0
-50 202 0
-202 -51 -203 0
203 -207 0
-51 204 0
-202 204 0
-204 -52 -205 0
205 -207 0
207 -213 0
-49 1 -208 0
208 -212 0
-50 2 -209 0
209 -212 0
-51 3 -210 0
210 -212 0
-52 4 -211 0
211 -212 0
212 -213 0
-2 213 -214 0
214 -243 0
-54 -53 -215 0
215 -221 0
-53 216 0
-54 216 0
-216 -55 -217 0
217 -221 0
-55 218 0
-216 218 0
-218 -56 -219 0
219 -221 0
221 -227 0
-53 1 -222 0
222 -226 0
-54 2 -223 0
223 -226 0
-55 3 -224 0
224 -226 0
-56 4 -225 0
225 -226 0
226 -227 0
-3 227 -228 0
228 -243 0
-58 -57 -229 0
229 -235 0
-57 230 0
-58 230 0
-230 -59 -231 0
231 -235 0
-59 232 0
-230 232 0
-232 -60 -233 0
233 -235 0
235 -241 0
-57 1 -236 0
236 -240 0
-58 2 -237 0
237 -240 0
-59 3 -238 0
238 -240 0
-60 4 -239 0
239 -240 0
240 -241 0
-4 241 -242 0
242 -243 0
243 -448 0
-48 192 0
-190 192 0
-192 1 -244 0
244 -248 0
-52 206 0
-204 206 0
-206 2 -245 0
245 -248 0
-56 220 0
-218 220 0
-220 3 -246 0
246 -248 0
-60 234 0
-232 234 0
-234 4 -247 0
247 -248 0
248 -448 0
5 -417 0
-1 413 0
-29 303 0
30 -252 0
33 -252 0
-30 -33 252 0
-252 303 0
31 -256 0
37 -256 0
-31 -37 256 0
-256 303 0
32 -260 0
41 -260 0
-32 -41 260 0
-260 303 0
29 252 256 260 -303 0
-303 385 0
-30 319 0
29 -249 0
30 -249 0
-29 -30 249 0
-249 304 0
30 -253 0
34 -253 0
-30 -34 253 0
-253 304 0
31 -257 0
38 -257 0
-31 -38 257 0
-257 304 0
32 -261 0
42 -261 0
-32 -42 261 0
-261 304 0
249 253 257 261 -304 0
-304 319 0
30 304 -319 0
319 -334 0
-33 322 0
29 -264 0
33 -264 0
-29 -33 264 0
-264 307 0
33 -267 0
34 -267 0
-33 -34 267 0
-267 307 0
35 -270 0
37 -270 0
-35 -37 270 0
-270 307 0
36 -274 0
41 -274 0
-36 -41 274 0
-274 307 0
264 267 270 274 -307 0
-307 322 0
33 307 -322 0
322 -334 0
-319 -322 334 0
-334 385 0
-31 320 0
29 -250 0
31 -250 0
-29 -31 250 0
-250 305 0
30 -254 0
35 -254 0
-30 -35 254 0
-254 305 0
31 -258 0
39 -258 0
-31 -39 258 0
-258 305 0
32 -262 0
43 -262 0
-32 -43 262 0
-262 305 0
250 254 258 262 -305 0
-305 320 0
31 305 -320 0
320 -338 0
-37 325 0
29 -278 0
37 -278 0
-29 -37 278 0
-278 311 0
33 -281 0
38 -281 0
-33 -38 281 0
-281 311 0
37 -284 0
39 -284 0
-37 -39 284 0
-284 311 0
40 -287 0
41 -287 0
-40 -41 287 0
-287 311 0
278 281 284 287 -311 0
-311 325 0
37 311 -325 0
325 -338 0
-320 -325 338 0
-338 385 0
-32 321 0
29 -251 0
32 -251 0
-29 -32 251 0
-251 306 0
30 -255 0
36 -255 0
-30 -36 255 0
-255 306 0
31 -259 0
40 -259 0
-31 -40 259 0
-259 306 0
32 -263 0
44 -263 0
-32 -44 263 0
-263 306 0
251 255 259 263 -306 0
-306 321 0
32 306 -321 0
321 -342 0
-41 328 0
29 -291 0
41 -291 0
-29 -41 291 0
-291 315 0
33 -294 0
42 -294 0
-33 -42 294 0
-294 315 0
37 -297 0
43 -297 0
-37 -43 297 0
-297 315 0
41 -300 0
44 -300 0
-41 -44 300 0
-300 315 0
291 294 297 300 -315 0
-315 328 0
41 315 -328 0
328 -342 0
-321 -328 342 0
-342 385 0
303 334 338 342 -385 0
-385 413 0
1 385 -413 0
413 -417 0
-5 -413 417 0
-417 433 0
6 -421 0
-322 404 0
303 -346 0
322 -346 0
-303 -322 346 0
-346 389 0
-34 308 0
-252 308 0
35 -271 0
38 -271 0
-35 -38 271 0
-271 308 0
36 -275 0
42 -275 0
-36 -42 275 0
-275 308 0
34 252 271 275 -308 0
308 -349 0
322 -349 0
-308 -322 349 0
-349 389 0
-35 323 0
31 -265 0
33 -265 0
-31 -33 265 0
-265 309 0
34 -268 0
35 -268 0
-34 -35 268 0
-268 309 0
35 -272 0
39 -272 0
-35 -39 272 0
-272 309 0
36 -276 0
43 -276 0
-36 -43 276 0
-276 309 0
265 268 272 276 -309 0
-309 323 0
35 309 -323 0
323 -352 0
325 -352 0
-323 -325 352 0
-352 389 0
-36 324 0
32 -266 0
33 -266 0
-32 -33 266 0
-266 310 0
34 -269 0
36 -269 0
-34 -36 269 0
-269 310 0
35 -273 0
40 -273 0
-35 -40 273 0
-273 310 0
36 -277 0
44 -277 0
-36 -44 277 0
-277 310 0
266 269 273 277 -310 0
-310 324 0
36 310 -324 0
324 -356 0
328 -356 0
-324 -328 356 0
-356 389 0
346 349 352 356 -389 0
-389 404 0
322 389 -404 0
404 -421 0
-6 -404 421 0
-421 433 0
7 -425 0
-325 407 0
303 -360 0
325 -360 0
-303 -325 360 0
-360 393 0
322 -363 0
-38 326 0
30 -279 0
37 -279 0
-30 -37 279 0
-279 312 0
34 -282 0
38 -282 0
-34 -38 282 0
-282 312 0
38 -285 0
39 -285 0
-38 -39 285 0
-285 312 0
40 -288 0
42 -288 0
-40 -42 288 0
-288 312 0
279 282 285 288 -312 0
-312 326 0
38 312 -326 0
326 -363 0
-322 -326 363 0
-363 393 0
-39 313 0
-256 313 0
-271 313 0
40 -289 0
43 -289 0
-40 -43 289 0
-289 313 0
39 256 271 289 -313 0
313 -366 0
325 -366 0
-313 -325 366 0
-366 393 0
-40 327 0
32 -280 0
37 -280 0
-32 -37 280 0
-280 314 0
36 -283 0
38 -283 0
-36 -38 283 0
-283 314 0
39 -286 0
40 -286 0
-39 -40 286 0
-286 314 0
40 -290 0
44 -290 0
-40 -44 290 0
-290 314 0
280 283 286 290 -314 0
-314 327 0
40 314 -327 0
327 -369 0
328 -369 0
-327 -328 369 0
-369 393 0
360 363 366 369 -393 0
-393 407 0
325 393 -407 0
407 -425 0
-7 -407 425 0
-425 433 0
8 -429 0
-328 410 0
303 -373 0
328 -373 0
-303 -328 373 0
-373 397 0
322 -376 0
-42 329 0
30 -292 0
41 -292 0
-30 -41 292 0
-292 316 0
34 -295 0
42 -295 0
-34 -42 295 0
-295 316 0
38 -298 0
43 -298 0
-38 -43 298 0
-298 316 0
42 -301 0
44 -301 0
-42 -44 301 0
-301 316 0
292 295 298 301 -316 0
-316 329 0
42 316 -329 0
329 -376 0
-322 -329 376 0
-376 397 0
325 -379 0
-43 330 0
31 -293 0
41 -293 0
-31 -41 293 0
-293 317 0
35 -296 0
42 -296 0
-35 -42 296 0
-296 317 0
39 -299 0
43 -299 0
-39 -43 299 0
-299 317 0
43 -302 0
44 -302 0
-43 -44 302 0
-302 317 0
293 296 299 302 -317 0
-317 330 0
43 317 -330 0
330 -379 0
-325 -330 379 0
-379 397 0
-44 318 0
-260 318 0
-275 318 0
-289 318 0
44 260 275 289 -318 0
318 -382 0
328 -382 0
-318 -328 382 0
-382 397 0
373 376 379 382 -397 0
-397 410 0
328 397 -410 0
410 -429 0
-8 -410 429 0
-429 433 0
417 421 425 429 -433 0
-433 1 -437 0
437 -441 0
5 -418 0
-319 401 0
303 -331 0
319 -331 0
-303 -319 331 0
-331 386 0
308 -335 0
319 -335 0
-308 -319 335 0
-335 386 0
320 -339 0
326 -339 0
-320 -326 339 0
-339 386 0
321 -343 0
329 -343 0
-321 -329 343 0
-343 386 0
331 335 339 343 -386 0
-386 401 0
319 386 -401 0
401 -418 0
-5 -401 418 0
-418 434 0
6 -422 0
-2 414 0
-308 390 0
-334 390 0
323 -353 0
326 -353 0
-323 -326 353 0
-353 390 0
324 -357 0
329 -357 0
-324 -329 357 0
-357 390 0
308 334 353 357 -390 0
-390 414 0
2 390 -414 0
414 -422 0
-6 -414 422 0
-422 434 0
7 -426 0
-326 408 0
319 -361 0
325 -361 0
-319 -325 361 0
-361 394 0
308 -364 0
326 -364 0
-308 -326 364 0
-364 394 0
313 -367 0
326 -367 0
-313 -326 367 0
-367 394 0
327 -370 0
329 -370 0
-327 -329 370 0
-370 394 0
361 364 367 370 -394 0
-394 408 0
326 394 -408 0
408 -426 0
-7 -408 426 0
-426 434 0
8 -430 0
-329 411 0
319 -374 0
328 -374 0
-319 -328 374 0
-374 398 0
308 -377 0
329 -377 0
-308 -329 377 0
-377 398 0
326 -380 0
330 -380 0
-326 -330 380 0
-380 398 0
318 -383 0
329 -383 0
-318 -329 383 0
-383 398 0
374 377 380 383 -398 0
-398 411 0
329 398 -411 0
411 -430 0
-8 -411 430 0
-430 434 0
418 422 426 430 -434 0
-434 2 -438 0
438 -441 0
5 -419 0
-320 402 0
303 -332 0
320 -332 0
-303 -320 332 0
-332 387 0
319 -336 0
323 -336 0
-319 -323 336 0
-336 387 0
313 -340 0
320 -340 0
-313 -320 340 0
-340 387 0
321 -344 0
330 -344 0
-321 -330 344 0
-344 387 0
332 336 340 344 -387 0
-387 402 0
320 387 -402 0
402 -419 0
-5 -402 419 0
-419 435 0
6 -423 0
-323 405 0
320 -347 0
322 -347 0
-320 -322 347 0
-347 391 0
308 -350 0
323 -350 0
-308 -323 350 0
-350 391 0
313 -354 0
323 -354 0
-313 -323 354 0
-354 391 0
324 -358 0
330 -358 0
-324 -330 358 0
-358 391 0
347 350 354 358 -391 0
-391 405 0
323 391 -405 0
405 -423 0
-6 -405 423 0
-423 435 0
7 -427 0
-3 415 0
-313 395 0
-338 395 0
-353 395 0
327 -371 0
330 -371 0
-327 -330 371 0
-371 395 0
313 338 353 371 -395 0
-395 415 0
3 395 -415 0
415 -427 0
-7 -415 427 0
-427 435 0
8 -431 0
-330 412 0
320 -375 0
328 -375 0
-320 -328 375 0
-375 399 0
323 -378 0
329 -378 0
-323 -329 378 0
-378 399 0
313 -381 0
330 -381 0
-313 -330 381 0
-381 399 0
318 -384 0
330 -384 0
-318 -330 384 0
-384 399 0
375 378 381 384 -399 0
-399 412 0
330 399 -412 0
412 -431 0
-8 -412 431 0
-431 435 0
419 423 427 431 -435 0
-435 3 -439 0
439 -441 0
5 -420 0
-321 403 0
303 -333 0
321 -333 0
-303 -321 333 0
-333 388 0
319 -337 0
324 -337 0
-319 -324 337 0
-337 388 0
320 -341 0
327 -341 0
-320 -327 341 0
-341 388 0
318 -345 0
321 -345 0
-318 -321 345 0
-345 388 0
333 337 341 345 -388 0
-388 403 0
321 388 -403 0
403 -420 0
-5 -403 420 0
-420 436 0
6 -424 0
-324 406 0
321 -348 0
322 -348 0
-321 -322 348 0
-348 392 0
308 -351 0
324 -351 0
-308 -324 351 0
-351 392 0
323 -355 0
327 -355 0
-323 -327 355 0
-355 392 0
318 -359 0
324 -359 0
-318 -324 359 0
-359 392 0
348 351 355 359 -392 0
-392 406 0
324 392 -406 0
406 -424 0
-6 -406 424 0
-424 436 0
7 -428 0
-327 409 0
321 -362 0
325 -362 0
-321 -325 362 0
-362 396 0
324 -365 0
326 -365 0
-324 -326 365 0
-365 396 0
313 -368 0
327 -368 0
-313 -327 368 0
-368 396 0
318 -372 0
327 -372 0
-318 -327 372 0
-372 396 0
362 365 368 372 -396 0
-396 409 0
327 396 -409 0
409 -428 0
-7 -409 428 0
-428 436 0
8 -432 0
-4 416 0
-318 400 0
-342 400 0
-357 400 0
-371 400 0
318 342 357 371 -400 0
-400 416 0
4 400 -416 0
416 -432 0
-8 -416 432 0
-432 436 0
420 424 428 432 -436 0
-436 4 -440 0
440 -441 0
441 -447 0
-1 433 -442 0
442 -446 0
-2 434 -443 0
443 -446 0
-3 435 -444 0
444 -446 0
-4 436 -445 0
445 -446 0
446 -447 0
447 -448 0
-5 6 -449 0
449 -523 0
-5 -6 450 0
5 6 450 0
-6 6 450 0
-9 10 -451 0
-450 451 -452 0
452 -523 0
-9 -10 453 0
9 10 453 0
-10 10 453 0
-450 -453 454 0
-1 2 -455 0
-454 455 -456 0
456 -523 0
-1 -2 457 0
1 2 457 0
-2 2 457 0
-454 -457 458 0
-13 17 -459 0
-458 459 -460 0
460 -523 0
-13 -17 461 0
13 17 461 0
-17 17 461 0
-458 -461 462 0
-14 18 -463 0
-462 463 -464 0
464 -523 0
-14 -18 465 0
14 18 465 0
-18 18 465 0
-462 -465 466 0
-15 19 -467 0
-466 467 -468 0
468 -523 0
-15 -19 469 0
15 19 469 0
-19 19 469 0
-466 -469 470 0
-16 20 -471 0
-470 471 -472 0
472 -523 0
-16 -20 473 0
16 20 473 0
-20 20 473 0
-470 -473 474 0
-29 34 -475 0
-474 475 -476 0
476 -523 0
-29 -34 477 0
29 34 477 0
-34 34 477 0
-474 -477 478 0
-30 33 -479 0
-478 479 -480 0
480 -523 0
-30 -33 481 0
30 33 481 0
-33 33 481 0
-478 -481 482 0
-31 35 -483 0
-482 483 -484 0
484 -523 0
-31 -35 485 0
31 35 485 0
-35 35 485 0
-482 -485 486 0
-32 36 -487 0
-486 487 -488 0
488 -523 0
-32 -36 489 0
32 36 489 0
-36 36 489 0
-486 -489 490 0
-37 38 -491 0
-490 491 -492 0
492 -523 0
-37 -38 493 0
37 38 493 0
-38 38 493 0
-490 -493 494 0
-41 42 -495 0
-494 495 -496 0
496 -523 0
-41 -42 497 0
41 42 497 0
-42 42 497 0
-494 -497 498 0
-45 50 -499 0
-498 499 -500 0
500 -523 0
-45 -50 501 0
45 50 501 0
-50 50 501 0
-498 -501 502 0
-46 49 -503 0
-502 503 -504 0
504 -523 0
-46 -49 505 0
46 49 505 0
-49 49 505 0
-502 -505 506 0
-47 51 -507 0
-506 507 -508 0
508 -523 0
-47 -51 509 0
47 51 509 0
-51 51 509 0
-506 -509 510 0
-48 52 -511 0
-510 511 -512 0
512 -523 0
-48 -52 513 0
48 52 513 0
-52 52 513 0
-510 -513 514 0
-53 54 -515 0
-514 515 -516 0
516 -523 0
-53 -54 517 0
53 54 517 0
-54 54 517 0
-514 -517 518 0
-57 58 -519 0
-518 519 -520 0
520 -523 0
523 -674 0
-6 7 -524 0
524 -598 0
-6 -7 525 0
6 7 525 0
-7 7 525 0
-10 11 -526 0
-525 526 -527 0
527 -598 0
-10 -11 528 0
10 11 528 0
-11 11 528 0
-525 -528 529 0
-2 3 -530 0
-529 530 -531 0
531 -598 0
-2 -3 532 0
2 3 532 0
-3 3 532 0
-529 -532 533 0
-17 21 -534 0
-533 534 -535 0
535 -598 0
-17 -21 536 0
17 21 536 0
-21 21 536 0
-533 -536 537 0
-18 22 -538 0
-537 538 -539 0
539 -598 0
-18 -22 540 0
18 22 540 0
-22 22 540 0
-537 -540 541 0
-19 23 -542 0
-541 542 -543 0
543 -598 0
-19 -23 544 0
19 23 544 0
-23 23 544 0
-541 -544 545 0
-20 24 -546 0
-545 546 -547 0
547 -598 0
-20 -24 548 0
20 24 548 0
-24 24 548 0
-545 -548 549 0
-30 31 -550 0
-549 550 -551 0
551 -598 0
-30 -31 552 0
30 31 552 0
-31 31 552 0
-549 -552 553 0
-33 37 -554 0
-553 554 -555 0
555 -598 0
-33 -37 556 0
33 37 556 0
-37 37 556 0
-553 -556 557 0
-34 39 -558 0
-557 558 -559 0
559 -598 0
-34 -39 560 0
34 39 560 0
-39 39 560 0
-557 -560 561 0
-35 38 -562 0
-561 562 -563 0
563 -598 0
-35 -38 564 0
35 38 564 0
-38 38 564 0
-561 -564 565 0
-36 40 -566 0
-565 566 -567 0
567 -598 0
-36 -40 568 0
36 40 568 0
-40 40 568 0
-565 -568 569 0
-42 43 -570 0
-569 570 -571 0
571 -598 0
-42 -43 572 0
42 43 572 0
-43 43 572 0
-569 -572 573 0
-46 47 -574 0
-573 574 -575 0
575 -598 0
-46 -47 576 0
46 47 576 0
-47 47 576 0
-573 -576 577 0
-49 53 -578 0
-577 578 -579 0
579 -598 0
-49 -53 580 0
49 53 580 0
-53 53 580 0
-577 -580 581 0
-50 55 -582 0
-581 582 -583 0
583 -598 0
-50 -55 584 0
50 55 584 0
-55 55 584 0
-581 -584 585 0
-51 54 -586 0
-585 586 -587 0
587 -598 0
-51 -54 588 0
51 54 588 0
-54 54 588 0
-585 -588 589 0
-52 56 -590 0
-589 590 -591 0
591 -598 0
-52 -56 592 0
52 56 592 0
-56 56 592 0
-589 -592 593 0
-58 59 -594 0
-593 594 -595 0
595 -598 0
598 -674 0
-7 8 -599 0
599 -673 0
-7 -8 600 0
7 8 600 0
-8 8 600 0
-11 12 -601 0
-600 601 -602 0
602 -673 0
-11 -12 603 0
11 12 603 0
-12 12 603 0
-600 -603 604 0
-3 4 -605 0
-604 605 -606 0
606 -673 0
-3 -4 607 0
3 4 607 0
-4 4 607 0
-604 -607 608 0
-21 25 -609 0
-608 609 -610 0
610 -673 0
-21 -25 611 0
21 25 611 0
-25 25 611 0
-608 -611 612 0
-22 26 -613 0
-612 613 -614 0
614 -673 0
-22 -26 615 0
22 26 615 0
-26 26 615 0
-612 -615 616 0
-23 27 -617 0
-616 617 -618 0
618 -673 0
-23 -27 619 0
23 27 619 0
-27 27 619 0
-616 -619 620 0
-24 28 -621 0
-620 621 -622 0
622 -673 0
-24 -28 623 0
24 28 623 0
-28 28 623 0
-620 -623 624 0
-31 32 -625 0
-624 625 -626 0
626 -673 0
-31 -32 627 0
31 32 627 0
-32 32 627 0
-624 -627 628 0
-35 36 -629 0
-628 629 -630 0
630 -673 0
-35 -36 631 0
35 36 631 0
-36 36 631 0
-628 -631 632 0
-37 41 -633 0
-632 633 -634 0
634 -673 0
-37 -41 635 0
37 41 635 0
-41 41 635 0
-632 -635 636 0
-38 42 -637 0
-636 637 -638 0
638 -673 0
-38 -42 639 0
38 42 639 0
-42 42 639 0
-636 -639 640 0
-39 44 -641 0
-640 641 -642 0
642 -673 0
-39 -44 643 0
39 44 643 0
-44 44 643 0
-640 -643 644 0
-40 43 -645 0
-644 645 -646 0
646 -673 0
-40 -43 647 0
40 43 647 0
-43 43 647 0
-644 -647 648 0
-47 48 -649 0
-648 649 -650 0
650 -673 0
-47 -48 651 0
47 48 651 0
-48 48 651 0
-648 -651 652 0
-51 52 -653 0
-652 653 -654 0
654 -673 0
-51 -52 655 0
51 52 655 0
-52 52 655 0
-652 -655 656 0
-53 57 -657 0
-656 657 -658 0
658 -673 0
-53 -57 659 0
53 57 659 0
-57 57 659 0
-656 -659 660 0
-54 58 -661 0
-660 661 -662 0
662 -673 0
-54 -58 663 0
54 58 663 0
-58 58 663 0
-660 -663 664 0
-55 60 -665 0
-664 665 -666 0
666 -673 0
-55 -60 667 0
55 60 667 0
-60 60 667 0
-664 -667 668 0
-56 59 -669 0
-668 669 -670 0
670 -673 0
673 -674 0
448 0
674 0
c ind 1 2 3 4 5 6 7 8 9 10 11 12 13 14 15 16 17 18 19 20 21 22 23 24 25 26 27 28 29 30 31 32 33 34 35 36 37 38 39 40 41 42 43 44 45 46 47 48 49 50 51 52 53 54 55 56 57 58 59 60 0
