p cnf 1556 2973             
-6 -5 -129 0
129 -135 0
-5 130 0
-6 130 0
-130 -7 -131 0
131 -135 0
-7 132 0
-130 132 0
-132 -8 -133 0
133 -135 0
135 -141 0
-5 1 -136 0
136 -140 0
-6 2 -137 0
137 -140 0
-7 3 -138 0
138 -140 0
-8 4 -139 0
139 -140 0
140 -141 0
141 -1317 0
-10 -9 -142 0
142 -172 0
-9 143 0
-10 143 0
9 10 -143 0
-143 -11 -144 0
144 -172 0
-11 145 0
-143 145 0
11 143 -145 0
-145 -12 -146 0
146 -172 0
-12 147 0
-145 147 0
12 145 -147 0
-147 -13 -148 0
148 -172 0
-13 149 0
-147 149 0
13 147 -149 0
-149 -14 -150 0
150 -172 0
-14 151 0
-149 151 0
14 149 -151 0
-151 -15 -152 0
152 -172 0
-15 153 0
-151 153 0
15 151 -153 0
-153 -16 -154 0
154 -172 0
-16 155 0
-153 155 0
16 153 -155 0
-155 -17 -156 0
156 -172 0
-17 157 0
-155 157 0
17 155 -157 0
-157 -18 -158 0
158 -172 0
-18 159 0
-157 159 0
18 157 -159 0
-159 -19 -160 0
160 -172 0
-19 161 0
-159 161 0
19 159 -161 0
-161 -20 -162 0
162 -172 0
-20 163 0
-161 163 0
20 161 -163 0
-163 -21 -164 0
164 -172 0
-21 165 0
-163 165 0
21 163 -165 0
-165 -22 -166 0
166 -172 0
-22 167 0
-165 167 0
22 165 -167 0
-167 -23 -168 0
168 -172 0
-23 169 0
-167 169 0
23 167 -169 0
-169 -24 -170 0
170 -172 0
24 169 -171 0
171 -172 0
172 -1317 0
-26 -25 -173 0
173 -203 0
-25 174 0
-26 174 0
25 26 -174 0
-174 -27 -175 0
175 -203 0
-27 176 0
-174 176 0
27 174 -176 0
-176 -28 -177 0
177 -203 0
-28 178 0
-176 178 0
28 176 -178 0
-178 -29 -179 0
179 -203 0
-29 180 0
-178 180 0
29 178 -180 0
-180 -30 -181 0
181 -203 0
-30 182 0
-180 182 0
30 180 -182 0
-182 -31 -183 0
183 -203 0
-31 184 0
-182 184 0
31 182 -184 0
-184 -32 -185 0
185 -203 0
-32 186 0
-184 186 0
32 184 -186 0
-186 -33 -187 0
187 -203 0
-33 188 0
-186 188 0
33 186 -188 0
-188 -34 -189 0
189 -203 0
-34 190 0
-188 190 0
34 188 -190 0
-190 -35 -191 0
191 -203 0
-35 192 0
-190 192 0
35 190 -192 0
-192 -36 -193 0
193 -203 0
-36 194 0
-192 194 0
36 192 -194 0
-194 -37 -195 0
195 -203 0
-37 196 0
-194 196 0
37 194 -196 0
-196 -38 -197 0
197 -203 0
-38 198 0
-196 198 0
38 196 -198 0
-198 -39 -199 0
199 -203 0
-39 200 0
-198 200 0
39 198 -200 0
-200 -40 -201 0
201 -203 0
40 200 -202 0
202 -203 0
-1 203 -204 0
204 -301 0
-42 -41 -205 0
205 -235 0
-41 206 0
-42 206 0
41 42 -206 0
-206 -43 -207 0
207 -235 0
-43 208 0
-206 208 0
43 206 -208 0
-208 -44 -209 0
209 -235 0
-44 210 0
-208 210 0
44 208 -210 0
-210 -45 -211 0
211 -235 0
-45 212 0
-210 212 0
45 210 -212 0
-212 -46 -213 0
213 -235 0
-46 214 0
-212 214 0
46 212 -214 0
-214 -47 -215 0
215 -235 0
-47 216 0
-214 216 0
47 214 -216 0
-216 -48 -217 0
217 -235 0
-48 218 0
-216 218 0
48 216 -218 0
-218 -49 -219 0
219 -235 0
-49 220 0
-218 220 0
49 218 -220 0
-220 -50 -221 0
221 -235 0
-50 222 0
-220 222 0
50 220 -222 0
-222 -51 -223 0
223 -235 0
-51 224 0
-222 224 0
51 222 -224 0
-224 -52 -225 0
225 -235 0
-52 226 0
-224 226 0
52 224 -226 0
-226 -53 -227 0
227 -235 0
-53 228 0
-226 228 0
53 226 -228 0
-228 -54 -229 0
229 -235 0
-54 230 0
-228 230 0
54 228 -230 0
-230 -55 -231 0
231 -235 0
-55 232 0
-230 232 0
55 230 -232 0
-232 -56 -233 0
233 -235 0
56 232 -234 0
234 -235 0
-2 235 -236 0
236 -301 0
-58 -57 -237 0
237 -267 0
-57 238 0
-58 238 0
57 58 -238 0
-238 -59 -239 0
239 -267 0
-59 240 0
-238 240 0
59 238 -240 0
-240 -60 -241 0
241 -267 0
-60 242 0
-240 242 0
60 240 -242 0
-242 -61 -243 0
243 -267 0
-61 244 0
-242 244 0
61 242 -244 0
-244 -62 -245 0
245 -267 0
-62 246 0
-244 246 0
62 244 -246 0
-246 -63 -247 0
247 -267 0
-63 248 0
-246 248 0
63 246 -248 0
-248 -64 -249 0
249 -267 0
-64 250 0
-248 250 0
64 248 -250 0
-250 -65 -251 0
251 -267 0
-65 252 0
-250 252 0
65 250 -252 0
-252 -66 -253 0
253 -267 0
-66 254 0
-252 254 0
66 252 -254 0
-254 -67 -255 0
255 -267 0
-67 256 0
-254 256 0
67 254 -256 0
-256 -68 -257 0
257 -267 0
-68 258 0
-256 258 0
68 256 -258 0
-258 -69 -259 0
259 -267 0
-69 260 0
-258 260 0
69 258 -260 0
-260 -70 -261 0
261 -267 0
-70 262 0
-260 262 0
70 260 -262 0
-262 -71 -263 0
263 -267 0
-71 264 0
-262 264 0
71 262 -264 0
-264 -72 -265 0
265 -267 0
72 264 -266 0
266 -267 0
-3 267 -268 0
268 -301 0
-74 -73 -269 0
269 -299 0
-73 270 0
-74 270 0
73 74 -270 0
-270 -75 -271 0
271 -299 0
-75 272 0
-270 272 0
75 270 -272 0
-272 -76 -273 0
273 -299 0
-76 274 0
-272 274 0
76 272 -274 0
-274 -77 -275 0
275 -299 0
-77 276 0
-274 276 0
77 274 -276 0
-276 -78 -277 0
277 -299 0
-78 278 0
-276 278 0
78 276 -278 0
-278 -79 -279 0
279 -299 0
-79 280 0
-278 280 0
79 278 -280 0
-280 -80 -281 0
281 -299 0
-80 282 0
-280 282 0
80 280 -282 0
-282 -81 -283 0
283 -299 0
-81 284 0
-282 284 0
81 282 -284 0
-284 -82 -285 0
285 -299 0
-82 286 0
-284 286 0
82 284 -286 0
-286 -83 -287 0
287 -299 0
-83 288 0
-286 288 0
83 286 -288 0
-288 -84 -289 0
289 -299 0
-84 290 0
-288 290 0
84 288 -290 0
-290 -85 -291 0
291 -299 0
-85 292 0
-290 292 0
85 290 -292 0
-292 -86 -293 0
293 -299 0
-86 294 0
-292 294 0
86 292 -294 0
-294 -87 -295 0
295 -299 0
-87 296 0
-294 296 0
87 294 -296 0
-296 -88 -297 0
297 -299 0
88 296 -298 0
298 -299 0
-4 299 -300 0
300 -301 0
301 -1317 0
-25 302 0
-26 302 0
-27 302 0
-28 302 0
-29 302 0
-30 302 0
-31 302 0
-32 302 0
-33 302 0
-34 302 0
-35 302 0
-36 302 0
-37 302 0
-38 302 0
-39 302 0
-40 302 0
-302 1 -306 0
306 -310 0
-41 303 0
-42 303 0
-43 303 0
-44 303 0
-45 303 0
-46 303 0
-47 303 0
-48 303 0
-49 303 0
-50 303 0
-51 303 0
-52 303 0
-53 303 0
-54 303 0
-55 303 0
-56 303 0
-303 2 -307 0
307 -310 0
-57 304 0
-58 304 0
-59 304 0
-60 304 0
-61 304 0
-62 304 0
-63 304 0
-64 304 0
-65 304 0
-66 304 0
-67 304 0
-68 304 0
-69 304 0
-70 304 0
-71 304 0
-72 304 0
-304 3 -308 0
308 -310 0
-73 305 0
-74 305 0
-75 305 0
-76 305 0
-77 305 0
-78 305 0
-79 305 0
-80 305 0
-81 305 0
-82 305 0
-83 305 0
-84 305 0
-85 305 0
-86 305 0
-87 305 0
-88 305 0
-305 4 -309 0
309 -310 0
310 -1317 0
-90 -89 -311 0
311 -317 0
-89 312 0
-90 312 0
-312 -91 -313 0
313 -317 0
-91 314 0
-312 314 0
-314 -92 -315 0
315 -317 0
317 -323 0
-89 1 -318 0
318 -322 0
-90 2 -319 0
319 -322 0
-91 3 -320 0
320 -322 0
-92 4 -321 0
321 -322 0
322 -323 0
-1 323 -324 0
324 -367 0
-94 -93 -325 0
325 -331 0
-93 326 0
-94 326 0
-326 -95 -327 0
327 -331 0
-95 328 0
-326 328 0
-328 -96 -329 0
329 -331 0
331 -337 0
-93 1 -332 0
332 -336 0
-94 2 -333 0
333 -336 0
-95 3 -334 0
334 -336 0
-96 4 -335 0
335 -336 0
336 -337 0
-2 337 -338 0
338 -367 0
-98 -97 -339 0
339 -345 0
-97 340 0
-98 340 0
-340 -99 -341 0
341 -345 0
-99 342 0
-340 342 0
-342 -100 -343 0
343 -345 0
345 -351 0
-97 1 -346 0
346 -350 0
-98 2 -347 0
347 -350 0
-99 3 -348 0
348 -350 0
-100 4 -349 0
349 -350 0
350 -351 0
-3 351 -352 0
352 -367 0
-102 -101 -353 0
353 -359 0
-101 354 0
-102 354 0
-354 -103 -355 0
355 -359 0
-103 356 0
-354 356 0
-356 -104 -357 0
357 -359 0
359 -365 0
-101 1 -360 0
360 -364 0
-102 2 -361 0
361 -364 0
-103 3 -362 0
362 -364 0
-104 4 -363 0
363 -364 0
364 -365 0
-4 365 -366 0
366 -367 0
367 -1317 0
-92 316 0
-314 316 0
-316 1 -368 0
368 -372 0
-96 330 0
-328 330 0
-330 2 -369 0
369 -372 0
-100 344 0
-342 344 0
-344 3 -370 0
370 -372 0
-104 358 0
-356 358 0
-358 4 -371 0
371 -372 0
372 -1317 0
-106 -105 -373 0
373 -379 0
-105 374 0
-106 374 0
-374 -107 -375 0
375 -379 0
-107 376 0
-374 376 0
-376 -108 -377 0
377 -379 0
379 -385 0
-105 1 -380 0
380 -384 0
-106 2 -381 0
381 -384 0
-107 3 -382 0
382 -384 0
-108 4 -383 0
383 -384 0
384 -385 0
-1 385 -386 0
386 -429 0
-110 -109 -387 0
387 -393 0
-109 388 0
-110 388 0
-388 -111 -389 0
389 -393 0
-111 390 0
-388 390 0
-390 -112 -391 0
391 -393 0
393 -399 0
-109 1 -394 0
394 -398 0
-110 2 -395 0
395 -398 0
-111 3 -396 0
396 -398 0
-112 4 -397 0
397 -398 0
398 -399 0
-2 399 -400 0
400 -429 0
-114 -113 -401 0
401 -407 0
-113 402 0
-114 402 0
-402 -115 -403 0
403 -407 0
-115 404 0
-402 404 0
-404 -116 -405 0
405 -407 0
407 -413 0
-113 1 -408 0
408 -412 0
-114 2 -409 0
409 -412 0
-115 3 -410 0
410 -412 0
-116 4 -411 0
411 -412 0
412 -413 0
-3 413 -414 0
414 -429 0
-118 -117 -415 0
415 -421 0
-117 416 0
-118 416 0
-416 -119 -417 0
417 -421 0
-119 418 0
-416 418 0
-418 -120 -419 0
419 -421 0
421 -427 0
-117 1 -422 0
422 -426 0
-118 2 -423 0
423 -426 0
-119 3 -424 0
424 -426 0
-120 4 -425 0
425 -426 0
426 -427 0
-4 427 -428 0
428 -429 0
429 -1317 0
-108 378 0
-376 378 0
-378 1 -430 0
430 -434 0
-112 392 0
-390 392 0
-392 2 -431 0
431 -434 0
-116 406 0
-404 406 0
-406 3 -432 0
432 -434 0
-120 420 0
-418 420 0
-420 4 -433 0
433 -434 0
434 -1317 0
-122 -121 -435 0
435 -437 0
-121 436 0
-122 436 0
121 122 -436 0
436 -437 0
-1 437 -438 0
438 -451 0
-124 -123 -439 0
439 -441 0
-123 440 0
-124 440 0
123 124 -440 0
440 -441 0
-2 441 -442 0
442 -451 0
-126 -125 -443 0
443 -445 0
-125 444 0
-126 444 0
125 126 -444 0
444 -445 0
-3 445 -446 0
446 -451 0
-128 -127 -447 0
447 -449 0
-127 448 0
-128 448 0
127 128 -448 0
448 -449 0
-4 449 -450 0
450 -451 0
451 -1317 0
-436 1 -452 0
452 -456 0
-440 2 -453 0
453 -456 0
-444 3 -454 0
454 -456 0
-448 4 -455 0
455 -456 0
456 -1317 0
5 -641 0
-1 637 0
-89 457 0
-105 457 0
89 105 -457 0
-457 527 0
-90 458 0
-106 458 0
90 106 -458 0
458 -476 0
-93 461 0
-109 461 0
93 109 -461 0
461 -476 0
-458 -461 476 0
-476 527 0
-91 459 0
-107 459 0
91 107 -459 0
459 -480 0
-97 465 0
-113 465 0
97 113 -465 0
465 -480 0
-459 -465 480 0
-480 527 0
-92 460 0
-108 460 0
92 108 -460 0
460 -484 0
-101 469 0
-117 469 0
101 117 -469 0
469 -484 0
-460 -469 484 0
-484 527 0
457 476 480 484 -527 0
-527 609 0
-458 543 0
457 -473 0
458 -473 0
-457 -458 473 0
-473 528 0
458 -477 0
-94 462 0
-110 462 0
94 110 -462 0
462 -477 0
-458 -462 477 0
-477 528 0
459 -481 0
-98 466 0
-114 466 0
98 114 -466 0
466 -481 0
-459 -466 481 0
-481 528 0
460 -485 0
-102 470 0
-118 470 0
102 118 -470 0
470 -485 0
-460 -470 485 0
-485 528 0
473 477 481 485 -528 0
-528 543 0
458 528 -543 0
543 -558 0
-461 546 0
457 -488 0
461 -488 0
-457 -461 488 0
-488 531 0
461 -491 0
462 -491 0
-461 -462 491 0
-491 531 0
-95 463 0
-111 463 0
95 111 -463 0
463 -494 0
465 -494 0
-463 -465 494 0
-494 531 0
-96 464 0
-112 464 0
96 112 -464 0
464 -498 0
469 -498 0
-464 -469 498 0
-498 531 0
488 491 494 498 -531 0
-531 546 0
461 531 -546 0
546 -558 0
-543 -546 558 0
-558 609 0
-459 544 0
457 -474 0
459 -474 0
-457 -459 474 0
-474 529 0
458 -478 0
463 -478 0
-458 -463 478 0
-478 529 0
459 -482 0
-99 467 0
-115 467 0
99 115 -467 0
467 -482 0
-459 -467 482 0
-482 529 0
460 -486 0
-103 471 0
-119 471 0
103 119 -471 0
471 -486 0
-460 -471 486 0
-486 529 0
474 478 482 486 -529 0
-529 544 0
459 529 -544 0
544 -562 0
-465 549 0
457 -502 0
465 -502 0
-457 -465 502 0
-502 535 0
461 -505 0
466 -505 0
-461 -466 505 0
-505 535 0
465 -508 0
467 -508 0
-465 -467 508 0
-508 535 0
-100 468 0
-116 468 0
100 116 -468 0
468 -511 0
469 -511 0
-468 -469 511 0
-511 535 0
502 505 508 511 -535 0
-535 549 0
465 535 -549 0
549 -562 0
-544 -549 562 0
-562 609 0
-460 545 0
457 -475 0
460 -475 0
-457 -460 475 0
-475 530 0
458 -479 0
464 -479 0
-458 -464 479 0
-479 530 0
459 -483 0
468 -483 0
-459 -468 483 0
-483 530 0
460 -487 0
-104 472 0
-120 472 0
104 120 -472 0
472 -487 0
-460 -472 487 0
-487 530 0
475 479 483 487 -530 0
-530 545 0
460 530 -545 0
545 -566 0
-469 552 0
457 -515 0
469 -515 0
-457 -469 515 0
-515 539 0
461 -518 0
470 -518 0
-461 -470 518 0
-518 539 0
465 -521 0
471 -521 0
-465 -471 521 0
-521 539 0
469 -524 0
472 -524 0
-469 -472 524 0
-524 539 0
515 518 521 524 -539 0
-539 552 0
469 539 -552 0
552 -566 0
-545 -552 566 0
-566 609 0
527 558 562 566 -609 0
-609 637 0
1 609 -637 0
637 -641 0
-5 -637 641 0
-641 657 0
6 -645 0
-546 628 0
527 -570 0
546 -570 0
-527 -546 570 0
-570 613 0
-462 532 0
-476 532 0
463 -495 0
466 -495 0
-463 -466 495 0
-495 532 0
464 -499 0
470 -499 0
-464 -470 499 0
-499 532 0
462 476 495 499 -532 0
532 -573 0
546 -573 0
-532 -546 573 0
-573 613 0
-463 547 0
459 -489 0
461 -489 0
-459 -461 489 0
-489 533 0
462 -492 0
463 -492 0
-462 -463 492 0
-492 533 0
463 -496 0
467 -496 0
-463 -467 496 0
-496 533 0
464 -500 0
471 -500 0
-464 -471 500 0
-500 533 0
489 492 496 500 -533 0
-533 547 0
463 533 -547 0
547 -576 0
549 -576 0
-547 -549 576 0
-576 613 0
-464 548 0
460 -490 0
461 -490 0
-460 -461 490 0
-490 534 0
462 -493 0
464 -493 0
-462 -464 493 0
-493 534 0
463 -497 0
468 -497 0
-463 -468 497 0
-497 534 0
464 -501 0
472 -501 0
-464 -472 501 0
-501 534 0
490 493 497 501 -534 0
-534 548 0
464 534 -548 0
548 -580 0
552 -580 0
-548 -552 580 0
-580 613 0
570 573 576 580 -613 0
-613 628 0
546 613 -628 0
628 -645 0
-6 -628 645 0
-645 657 0
7 -649 0
-549 631 0
527 -584 0
549 -584 0
-527 -549 584 0
-584 617 0
546 -587 0
-466 550 0
458 -503 0
465 -503 0
-458 -465 503 0
-503 536 0
462 -506 0
466 -506 0
-462 -466 506 0
-506 536 0
466 -509 0
467 -509 0
-466 -467 509 0
-509 536 0
468 -512 0
470 -512 0
-468 -470 512 0
-512 536 0
503 506 509 512 -536 0
-536 550 0
466 536 -550 0
550 -587 0
-546 -550 587 0
-587 617 0
-467 537 0
-480 537 0
-495 537 0
468 -513 0
471 -513 0
-468 -471 513 0
-513 537 0
467 480 495 513 -537 0
537 -590 0
549 -590 0
-537 -549 590 0
-590 617 0
-468 551 0
460 -504 0
465 -504 0
-460 -465 504 0
-504 538 0
464 -507 0
466 -507 0
-464 -466 507 0
-507 538 0
467 -510 0
468 -510 0
-467 -468 510 0
-510 538 0
468 -514 0
472 -514 0
-468 -472 514 0
-514 538 0
504 507 510 514 -538 0
-538 551 0
468 538 -551 0
551 -593 0
552 -593 0
-551 -552 593 0
-593 617 0
584 587 590 593 -617 0
-617 631 0
549 617 -631 0
631 -649 0
-7 -631 649 0
-649 657 0
8 -653 0
-552 634 0
527 -597 0
552 -597 0
-527 -552 597 0
-597 621 0
546 -600 0
-470 553 0
458 -516 0
469 -516 0
-458 -469 516 0
-516 540 0
462 -519 0
470 -519 0
-462 -470 519 0
-519 540 0
466 -522 0
471 -522 0
-466 -471 522 0
-522 540 0
470 -525 0
472 -525 0
-470 -472 525 0
-525 540 0
516 519 522 525 -540 0
-540 553 0
470 540 -553 0
553 -600 0
-546 -553 600 0
-600 621 0
549 -603 0
-471 554 0
459 -517 0
469 -517 0
-459 -469 517 0
-517 541 0
463 -520 0
470 -520 0
-463 -470 520 0
-520 541 0
467 -523 0
471 -523 0
-467 -471 523 0
-523 541 0
471 -526 0
472 -526 0
-471 -472 526 0
-526 541 0
517 520 523 526 -541 0
-541 554 0
471 541 -554 0
554 -603 0
-549 -554 603 0
-603 621 0
-472 542 0
-484 542 0
-499 542 0
-513 542 0
472 484 499 513 -542 0
542 -606 0
552 -606 0
-542 -552 606 0
-606 621 0
597 600 603 606 -621 0
-621 634 0
552 621 -634 0
634 -653 0
-8 -634 653 0
-653 657 0
641 645 649 653 -657 0
-657 1 -661 0
661 -665 0
5 -642 0
-543 625 0
527 -555 0
543 -555 0
-527 -543 555 0
-555 610 0
532 -559 0
543 -559 0
-532 -543 559 0
-559 610 0
544 -563 0
550 -563 0
-544 -550 563 0
-563 610 0
545 -567 0
553 -567 0
-545 -553 567 0
-567 610 0
555 559 563 567 -610 0
-610 625 0
543 610 -625 0
625 -642 0
-5 -625 642 0
-642 658 0
6 -646 0
-2 638 0
-532 614 0
-558 614 0
547 -577 0
550 -577 0
-547 -550 577 0
-577 614 0
548 -581 0
553 -581 0
-548 -553 581 0
-581 614 0
532 558 577 581 -614 0
-614 638 0
2 614 -638 0
638 -646 0
-6 -638 646 0
-646 658 0
7 -650 0
-550 632 0
543 -585 0
549 -585 0
-543 -549 585 0
-585 618 0
532 -588 0
550 -588 0
-532 -550 588 0
-588 618 0
537 -591 0
550 -591 0
-537 -550 591 0
-591 618 0
551 -594 0
553 -594 0
-551 -553 594 0
-594 618 0
585 588 591 594 -618 0
-618 632 0
550 618 -632 0
632 -650 0
-7 -632 650 0
-650 658 0
8 -654 0
-553 635 0
543 -598 0
552 -598 0
-543 -552 598 0
-598 622 0
532 -601 0
553 -601 0
-532 -553 601 0
-601 622 0
550 -604 0
554 -604 0
-550 -554 604 0
-604 622 0
542 -607 0
553 -607 0
-542 -553 607 0
-607 622 0
598 601 604 607 -622 0
-622 635 0
553 622 -635 0
635 -654 0
-8 -635 654 0
-654 658 0
642 646 650 654 -658 0
-658 2 -662 0
662 -665 0
5 -643 0
-544 626 0
527 -556 0
544 -556 0
-527 -544 556 0
-556 611 0
543 -560 0
547 -560 0
-543 -547 560 0
-560 611 0
537 -564 0
544 -564 0
-537 -544 564 0
-564 611 0
545 -568 0
554 -568 0
-545 -554 568 0
-568 611 0
556 560 564 568 -611 0
-611 626 0
544 611 -626 0
626 -643 0
-5 -626 643 0
-643 659 0
6 -647 0
-547 629 0
544 -571 0
546 -571 0
-544 -546 571 0
-571 615 0
532 -574 0
547 -574 0
-532 -547 574 0
-574 615 0
537 -578 0
547 -578 0
-537 -547 578 0
-578 615 0
548 -582 0
554 -582 0
-548 -554 582 0
-582 615 0
571 574 578 582 -615 0
-615 629 0
547 615 -629 0
629 -647 0
-6 -629 647 0
-647 659 0
7 -651 0
-3 639 0
-537 619 0
-562 619 0
-577 619 0
551 -595 0
554 -595 0
-551 -554 595 0
-595 619 0
537 562 577 595 -619 0
-619 639 0
3 619 -639 0
639 -651 0
-7 -639 651 0
-651 659 0
8 -655 0
-554 636 0
544 -599 0
552 -599 0
-544 -552 599 0
-599 623 0
547 -602 0
553 -602 0
-547 -553 602 0
-602 623 0
537 -605 0
554 -605 0
-537 -554 605 0
-605 623 0
542 -608 0
554 -608 0
-542 -554 608 0
-608 623 0
599 602 605 608 -623 0
-623 636 0
554 623 -636 0
636 -655 0
-8 -636 655 0
-655 659 0
643 647 651 655 -659 0
-659 3 -663 0
663 -665 0
5 -644 0
-545 627 0
527 -557 0
545 -557 0
-527 -545 557 0
-557 612 0
543 -561 0
548 -561 0
-543 -548 561 0
-561 612 0
544 -565 0
551 -565 0
-544 -551 565 0
-565 612 0
542 -569 0
545 -569 0
-542 -545 569 0
-569 612 0
557 561 565 569 -612 0
-612 627 0
545 612 -627 0
627 -644 0
-5 -627 644 0
-644 660 0
6 -648 0
-548 630 0
545 -572 0
546 -572 0
-545 -546 572 0
-572 616 0
532 -575 0
548 -575 0
-532 -548 575 0
-575 616 0
547 -579 0
551 -579 0
-547 -551 579 0
-579 616 0
542 -583 0
548 -583 0
-542 -548 583 0
-583 616 0
572 575 579 583 -616 0
-616 630 0
548 616 -630 0
630 -648 0
-6 -630 648 0
-648 660 0
7 -652 0
-551 633 0
545 -586 0
549 -586 0
-545 -549 586 0
-586 620 0
548 -589 0
550 -589 0
-548 -550 589 0
-589 620 0
537 -592 0
551 -592 0
-537 -551 592 0
-592 620 0
542 -596 0
551 -596 0
-542 -551 596 0
-596 620 0
586 589 592 596 -620 0
-620 633 0
551 620 -633 0
633 -652 0
-7 -633 652 0
-652 660 0
8 -656 0
-4 640 0
-542 624 0
-566 624 0
-581 624 0
-595 624 0
542 566 581 595 -624 0
-624 640 0
4 624 -640 0
640 -656 0
-8 -640 656 0
-656 660 0
644 648 652 656 -660 0
-660 4 -664 0
664 -665 0
665 -671 0
-1 657 -666 0
666 -670 0
-2 658 -667 0
667 -670 0
-3 659 -668 0
668 -670 0
-4 660 -669 0
669 -670 0
670 -671 0
671 -1317 0
1 -680 0
33 -680 0
2 -696 0
49 -696 0
3 -712 0
65 -712 0
4 -728 0
81 -728 0
680 696 712 728 -744 0
744 -1317 0
33 -753 0
-40 -752 0
-39 -752 0
-38 -752 0
-37 -752 0
-36 -752 0
-35 -752 0
-34 -752 0
-32 -752 0
-31 -752 0
-30 -752 0
-29 -752 0
-28 -752 0
-27 -752 0
-26 -752 0
-25 -752 0
752 -753 0
1 -787 0
-40 -769 0
-25 26 -754 0
754 -769 0
-26 27 -755 0
755 -769 0
-27 28 -756 0
756 -769 0
-28 29 -757 0
757 -769 0
-29 30 -758 0
758 -769 0
-30 31 -759 0
759 -769 0
-31 32 -760 0
760 -769 0
-32 33 -761 0
761 -769 0
-33 34 -762 0
762 -769 0
-34 35 -763 0
763 -769 0
-35 36 -764 0
764 -769 0
-36 37 -765 0
765 -769 0
-37 38 -766 0
766 -769 0
-38 39 -767 0
767 -769 0
-39 40 -768 0
768 -769 0
769 -786 0
-26 25 -770 0
770 -785 0
-27 26 -771 0
771 -785 0
-28 27 -772 0
772 -785 0
-29 28 -773 0
773 -785 0
-30 29 -774 0
774 -785 0
-31 30 -775 0
775 -785 0
-32 31 -776 0
776 -785 0
-33 32 -777 0
777 -785 0
-34 33 -778 0
778 -785 0
-35 34 -779 0
779 -785 0
-36 35 -780 0
780 -785 0
-37 36 -781 0
781 -785 0
-38 37 -782 0
782 -785 0
-39 38 -783 0
783 -785 0
-40 39 -784 0
784 -785 0
785 -786 0
786 -787 0
2 -821 0
-56 -803 0
-41 26 -788 0
788 -803 0
-42 27 -789 0
789 -803 0
-43 28 -790 0
790 -803 0
-44 29 -791 0
791 -803 0
-45 30 -792 0
792 -803 0
-46 31 -793 0
793 -803 0
-47 32 -794 0
794 -803 0
-48 33 -795 0
795 -803 0
-49 34 -796 0
796 -803 0
-50 35 -797 0
797 -803 0
-51 36 -798 0
798 -803 0
-52 37 -799 0
799 -803 0
-53 38 -800 0
800 -803 0
-54 39 -801 0
801 -803 0
-55 40 -802 0
802 -803 0
803 -820 0
-26 41 -804 0
804 -819 0
-27 42 -805 0
805 -819 0
-28 43 -806 0
806 -819 0
-29 44 -807 0
807 -819 0
-30 45 -808 0
808 -819 0
-31 46 -809 0
809 -819 0
-32 47 -810 0
810 -819 0
-33 48 -811 0
811 -819 0
-34 49 -812 0
812 -819 0
-35 50 -813 0
813 -819 0
-36 51 -814 0
814 -819 0
-37 52 -815 0
815 -819 0
-38 53 -816 0
816 -819 0
-39 54 -817 0
817 -819 0
-40 55 -818 0
818 -819 0
819 -820 0
820 -821 0
3 -855 0
-72 -837 0
-57 26 -822 0
822 -837 0
-58 27 -823 0
823 -837 0
-59 28 -824 0
824 -837 0
-60 29 -825 0
825 -837 0
-61 30 -826 0
826 -837 0
-62 31 -827 0
827 -837 0
-63 32 -828 0
828 -837 0
-64 33 -829 0
829 -837 0
-65 34 -830 0
830 -837 0
-66 35 -831 0
831 -837 0
-67 36 -832 0
832 -837 0
-68 37 -833 0
833 -837 0
-69 38 -834 0
834 -837 0
-70 39 -835 0
835 -837 0
-71 40 -836 0
836 -837 0
837 -854 0
-26 57 -838 0
838 -853 0
-27 58 -839 0
839 -853 0
-28 59 -840 0
840 -853 0
-29 60 -841 0
841 -853 0
-30 61 -842 0
842 -853 0
-31 62 -843 0
843 -853 0
-32 63 -844 0
844 -853 0
-33 64 -845 0
845 -853 0
-34 65 -846 0
846 -853 0
-35 66 -847 0
847 -853 0
-36 67 -848 0
848 -853 0
-37 68 -849 0
849 -853 0
-38 69 -850 0
850 -853 0
-39 70 -851 0
851 -853 0
-40 71 -852 0
852 -853 0
853 -854 0
854 -855 0
4 -889 0
-88 -871 0
-73 26 -856 0
856 -871 0
-74 27 -857 0
857 -871 0
-75 28 -858 0
858 -871 0
-76 29 -859 0
859 -871 0
-77 30 -860 0
860 -871 0
-78 31 -861 0
861 -871 0
-79 32 -862 0
862 -871 0
-80 33 -863 0
863 -871 0
-81 34 -864 0
864 -871 0
-82 35 -865 0
865 -871 0
-83 36 -866 0
866 -871 0
-84 37 -867 0
867 -871 0
-85 38 -868 0
868 -871 0
-86 39 -869 0
869 -871 0
-87 40 -870 0
870 -871 0
871 -888 0
-26 73 -872 0
872 -887 0
-27 74 -873 0
873 -887 0
-28 75 -874 0
874 -887 0
-29 76 -875 0
875 -887 0
-30 77 -876 0
876 -887 0
-31 78 -877 0
877 -887 0
-32 79 -878 0
878 -887 0
-33 80 -879 0
879 -887 0
-34 81 -880 0
880 -887 0
-35 82 -881 0
881 -887 0
-36 83 -882 0
882 -887 0
-37 84 -883 0
883 -887 0
-38 85 -884 0
884 -887 0
-39 86 -885 0
885 -887 0
-40 87 -886 0
886 -887 0
887 -888 0
888 -889 0
787 821 855 889 -890 0
753 890 -891 0
-1 891 -892 0
892 -1316 0
49 -894 0
-56 -893 0
-55 -893 0
-54 -893 0
-53 -893 0
-52 -893 0
-51 -893 0
-50 -893 0
-48 -893 0
-47 -893 0
-46 -893 0
-45 -893 0
-44 -893 0
-43 -893 0
-42 -893 0
-41 -893 0
893 -894 0
1 -928 0
-40 -910 0
-25 42 -895 0
895 -910 0
-26 43 -896 0
896 -910 0
-27 44 -897 0
897 -910 0
-28 45 -898 0
898 -910 0
-29 46 -899 0
899 -910 0
-30 47 -900 0
900 -910 0
-31 48 -901 0
901 -910 0
-32 49 -902 0
902 -910 0
-33 50 -903 0
903 -910 0
-34 51 -904 0
904 -910 0
-35 52 -905 0
905 -910 0
-36 53 -906 0
906 -910 0
-37 54 -907 0
907 -910 0
-38 55 -908 0
908 -910 0
-39 56 -909 0
909 -910 0
910 -927 0
-42 25 -911 0
911 -926 0
-43 26 -912 0
912 -926 0
-44 27 -913 0
913 -926 0
-45 28 -914 0
914 -926 0
-46 29 -915 0
915 -926 0
-47 30 -916 0
916 -926 0
-48 31 -917 0
917 -926 0
-49 32 -918 0
918 -926 0
-50 33 -919 0
919 -926 0
-51 34 -920 0
920 -926 0
-52 35 -921 0
921 -926 0
-53 36 -922 0
922 -926 0
-54 37 -923 0
923 -926 0
-55 38 -924 0
924 -926 0
-56 39 -925 0
925 -926 0
926 -927 0
927 -928 0
2 -962 0
-56 -944 0
-41 42 -929 0
929 -944 0
-42 43 -930 0
930 -944 0
-43 44 -931 0
931 -944 0
-44 45 -932 0
932 -944 0
-45 46 -933 0
933 -944 0
-46 47 -934 0
934 -944 0
-47 48 -935 0
935 -944 0
-48 49 -936 0
936 -944 0
-49 50 -937 0
937 -944 0
-50 51 -938 0
938 -944 0
-51 52 -939 0
939 -944 0
-52 53 -940 0
940 -944 0
-53 54 -941 0
941 -944 0
-54 55 -942 0
942 -944 0
-55 56 -943 0
943 -944 0
944 -961 0
-42 41 -945 0
945 -960 0
-43 42 -946 0
946 -960 0
-44 43 -947 0
947 -960 0
-45 44 -948 0
948 -960 0
-46 45 -949 0
949 -960 0
-47 46 -950 0
950 -960 0
-48 47 -951 0
951 -960 0
-49 48 -952 0
952 -960 0
-50 49 -953 0
953 -960 0
-51 50 -954 0
954 -960 0
-52 51 -955 0
955 -960 0
-53 52 -956 0
956 -960 0
-54 53 -957 0
957 -960 0
-55 54 -958 0
958 -960 0
-56 55 -959 0
959 -960 0
960 -961 0
961 -962 0
3 -996 0
-72 -978 0
-57 42 -963 0
963 -978 0
-58 43 -964 0
964 -978 0
-59 44 -965 0
965 -978 0
-60 45 -966 0
966 -978 0
-61 46 -967 0
967 -978 0
-62 47 -968 0
968 -978 0
-63 48 -969 0
969 -978 0
-64 49 -970 0
970 -978 0
-65 50 -971 0
971 -978 0
-66 51 -972 0
972 -978 0
-67 52 -973 0
973 -978 0
-68 53 -974 0
974 -978 0
-69 54 -975 0
975 -978 0
-70 55 -976 0
976 -978 0
-71 56 -977 0
977 -978 0
978 -995 0
-42 57 -979 0
979 -994 0
-43 58 -980 0
980 -994 0
-44 59 -981 0
981 -994 0
-45 60 -982 0
982 -994 0
-46 61 -983 0
983 -994 0
-47 62 -984 0
984 -994 0
-48 63 -985 0
985 -994 0
-49 64 -986 0
986 -994 0
-50 65 -987 0
987 -994 0
-51 66 -988 0
988 -994 0
-52 67 -989 0
989 -994 0
-53 68 -990 0
990 -994 0
-54 69 -991 0
991 -994 0
-55 70 -992 0
992 -994 0
-56 71 -993 0
993 -994 0
994 -995 0
995 -996 0
4 -1030 0
-88 -1012 0
-73 42 -997 0
997 -1012 0
-74 43 -998 0
998 -1012 0
-75 44 -999 0
999 -1012 0
-76 45 -1000 0
1000 -1012 0
-77 46 -1001 0
1001 -1012 0
-78 47 -1002 0
1002 -1012 0
-79 48 -1003 0
1003 -1012 0
-80 49 -1004 0
1004 -1012 0
-81 50 -1005 0
1005 -1012 0
-82 51 -1006 0
1006 -1012 0
-83 52 -1007 0
1007 -1012 0
-84 53 -1008 0
1008 -1012 0
-85 54 -1009 0
1009 -1012 0
-86 55 -1010 0
1010 -1012 0
-87 56 -1011 0
1011 -1012 0
1012 -1029 0
-42 73 -1013 0
1013 -1028 0
-43 74 -1014 0
1014 -1028 0
-44 75 -1015 0
1015 -1028 0
-45 76 -1016 0
1016 -1028 0
-46 77 -1017 0
1017 -1028 0
-47 78 -1018 0
1018 -1028 0
-48 79 -1019 0
1019 -1028 0
-49 80 -1020 0
1020 -1028 0
-50 81 -1021 0
1021 -1028 0
-51 82 -1022 0
1022 -1028 0
-52 83 -1023 0
1023 -1028 0
-53 84 -1024 0
1024 -1028 0
-54 85 -1025 0
1025 -1028 0
-55 86 -1026 0
1026 -1028 0
-56 87 -1027 0
1027 -1028 0
1028 -1029 0
1029 -1030 0
928 962 996 1030 -1031 0
894 1031 -1032 0
-2 1032 -1033 0
1033 -1316 0
65 -1035 0
-72 -1034 0
-71 -1034 0
-70 -1034 0
-69 -1034 0
-68 -1034 0
-67 -1034 0
-66 -1034 0
-64 -1034 0
-63 -1034 0
-62 -1034 0
-61 -1034 0
-60 -1034 0
-59 -1034 0
-58 -1034 0
-57 -1034 0
1034 -1035 0
1 -1069 0
-40 -1051 0
-25 58 -1036 0
1036 -1051 0
-26 59 -1037 0
1037 -1051 0
-27 60 -1038 0
1038 -1051 0
-28 61 -1039 0
1039 -1051 0
-29 62 -1040 0
1040 -1051 0
-30 63 -1041 0
1041 -1051 0
-31 64 -1042 0
1042 -1051 0
-32 65 -1043 0
1043 -1051 0
-33 66 -1044 0
1044 -1051 0
-34 67 -1045 0
1045 -1051 0
-35 68 -1046 0
1046 -1051 0
-36 69 -1047 0
1047 -1051 0
-37 70 -1048 0
1048 -1051 0
-38 71 -1049 0
1049 -1051 0
-39 72 -1050 0
1050 -1051 0
1051 -1068 0
-58 25 -1052 0
1052 -1067 0
-59 26 -1053 0
1053 -1067 0
-60 27 -1054 0
1054 -1067 0
-61 28 -1055 0
1055 -1067 0
-62 29 -1056 0
1056 -1067 0
-63 30 -1057 0
1057 -1067 0
-64 31 -1058 0
1058 -1067 0
-65 32 -1059 0
1059 -1067 0
-66 33 -1060 0
1060 -1067 0
-67 34 -1061 0
1061 -1067 0
-68 35 -1062 0
1062 -1067 0
-69 36 -1063 0
1063 -1067 0
-70 37 -1064 0
1064 -1067 0
-71 38 -1065 0
1065 -1067 0
-72 39 -1066 0
1066 -1067 0
1067 -1068 0
1068 -1069 0
2 -1103 0
-56 -1085 0
-41 58 -1070 0
1070 -1085 0
-42 59 -1071 0
1071 -1085 0
-43 60 -1072 0
1072 -1085 0
-44 61 -1073 0
1073 -1085 0
-45 62 -1074 0
1074 -1085 0
-46 63 -1075 0
1075 -1085 0
-47 64 -1076 0
1076 -1085 0
-48 65 -1077 0
1077 -1085 0
-49 66 -1078 0
1078 -1085 0
-50 67 -1079 0
1079 -1085 0
-51 68 -1080 0
1080 -1085 0
-52 69 -1081 0
1081 -1085 0
-53 70 -1082 0
1082 -1085 0
-54 71 -1083 0
1083 -1085 0
-55 72 -1084 0
1084 -1085 0
1085 -1102 0
-58 41 -1086 0
1086 -1101 0
-59 42 -1087 0
1087 -1101 0
-60 43 -1088 0
1088 -1101 0
-61 44 -1089 0
1089 -1101 0
-62 45 -1090 0
1090 -1101 0
-63 46 -1091 0
1091 -1101 0
-64 47 -1092 0
1092 -1101 0
-65 48 -1093 0
1093 -1101 0
-66 49 -1094 0
1094 -1101 0
-67 50 -1095 0
1095 -1101 0
-68 51 -1096 0
1096 -1101 0
-69 52 -1097 0
1097 -1101 0
-70 53 -1098 0
1098 -1101 0
-71 54 -1099 0
1099 -1101 0
-72 55 -1100 0
1100 -1101 0
1101 -1102 0
1102 -1103 0
3 -1137 0
-72 -1119 0
-57 58 -1104 0
1104 -1119 0
-58 59 -1105 0
1105 -1119 0
-59 60 -1106 0
1106 -1119 0
-60 61 -1107 0
1107 -1119 0
-61 62 -1108 0
1108 -1119 0
-62 63 -1109 0
1109 -1119 0
-63 64 -1110 0
1110 -1119 0
-64 65 -1111 0
1111 -1119 0
-65 66 -1112 0
1112 -1119 0
-66 67 -1113 0
1113 -1119 0
-67 68 -1114 0
1114 -1119 0
-68 69 -1115 0
1115 -1119 0
-69 70 -1116 0
1116 -1119 0
-70 71 -1117 0
1117 -1119 0
-71 72 -1118 0
1118 -1119 0
1119 -1136 0
-58 57 -1120 0
1120 -1135 0
-59 58 -1121 0
1121 -1135 0
-60 59 -1122 0
1122 -1135 0
-61 60 -1123 0
1123 -1135 0
-62 61 -1124 0
1124 -1135 0
-63 62 -1125 0
1125 -1135 0
-64 63 -1126 0
1126 -1135 0
-65 64 -1127 0
1127 -1135 0
-66 65 -1128 0
1128 -1135 0
-67 66 -1129 0
1129 -1135 0
-68 67 -1130 0
1130 -1135 0
-69 68 -1131 0
1131 -1135 0
-70 69 -1132 0
1132 -1135 0
-71 70 -1133 0
1133 -1135 0
-72 71 -1134 0
1134 -1135 0
1135 -1136 0
1136 -1137 0
4 -1171 0
-88 -1153 0
-73 58 -1138 0
1138 -1153 0
-74 59 -1139 0
1139 -1153 0
-75 60 -1140 0
1140 -1153 0
-76 61 -1141 0
1141 -1153 0
-77 62 -1142 0
1142 -1153 0
-78 63 -1143 0
1143 -1153 0
-79 64 -1144 0
1144 -1153 0
-80 65 -1145 0
1145 -1153 0
-81 66 -1146 0
1146 -1153 0
-82 67 -1147 0
1147 -1153 0
-83 68 -1148 0
1148 -1153 0
-84 69 -1149 0
1149 -1153 0
-85 70 -1150 0
1150 -1153 0
-86 71 -1151 0
1151 -1153 0
-87 72 -1152 0
1152 -1153 0
1153 -1170 0
-58 73 -1154 0
1154 -1169 0
-59 74 -1155 0
1155 -1169 0
-60 75 -1156 0
1156 -1169 0
-61 76 -1157 0
1157 -1169 0
-62 77 -1158 0
1158 -1169 0
-63 78 -1159 0
1159 -1169 0
-64 79 -1160 0
1160 -1169 0
-65 80 -1161 0
1161 -1169 0
-66 81 -1162 0
1162 -1169 0
-67 82 -1163 0
1163 -1169 0
-68 83 -1164 0
1164 -1169 0
-69 84 -1165 0
1165 -1169 0
-70 85 -1166 0
1166 -1169 0
-71 86 -1167 0
1167 -1169 0
-72 87 -1168 0
1168 -1169 0
1169 -1170 0
1170 -1171 0
1069 1103 1137 1171 -1172 0
1035 1172 -1173 0
-3 1173 -1174 0
1174 -1316 0
81 -1176 0
-88 -1175 0
-87 -1175 0
-86 -1175 0
-85 -1175 0
-84 -1175 0
-83 -1175 0
-82 -1175 0
-80 -1175 0
-79 -1175 0
-78 -1175 0
-77 -1175 0
-76 -1175 0
-75 -1175 0
-74 -1175 0
-73 -1175 0
1175 -1176 0
1 -1210 0
-40 -1192 0
-25 74 -1177 0
1177 -1192 0
-26 75 -1178 0
1178 -1192 0
-27 76 -1179 0
1179 -1192 0
-28 77 -1180 0
1180 -1192 0
-29 78 -1181 0
1181 -1192 0
-30 79 -1182 0
1182 -1192 0
-31 80 -1183 0
1183 -1192 0
-32 81 -1184 0
1184 -1192 0
-33 82 -1185 0
1185 -1192 0
-34 83 -1186 0
1186 -1192 0
-35 84 -1187 0
1187 -1192 0
-36 85 -1188 0
1188 -1192 0
-37 86 -1189 0
1189 -1192 0
-38 87 -1190 0
1190 -1192 0
-39 88 -1191 0
1191 -1192 0
1192 -1209 0
-74 25 -1193 0
1193 -1208 0
-75 26 -1194 0
1194 -1208 0
-76 27 -1195 0
1195 -1208 0
-77 28 -1196 0
1196 -1208 0
-78 29 -1197 0
1197 -1208 0
-79 30 -1198 0
1198 -1208 0
-80 31 -1199 0
1199 -1208 0
-81 32 -1200 0
1200 -1208 0
-82 33 -1201 0
1201 -1208 0
-83 34 -1202 0
1202 -1208 0
-84 35 -1203 0
1203 -1208 0
-85 36 -1204 0
1204 -1208 0
-86 37 -1205 0
1205 -1208 0
-87 38 -1206 0
1206 -1208 0
-88 39 -1207 0
1207 -1208 0
1208 -1209 0
1209 -1210 0
2 -1244 0
-56 -1226 0
-41 74 -1211 0
1211 -1226 0
-42 75 -1212 0
1212 -1226 0
-43 76 -1213 0
1213 -1226 0
-44 77 -1214 0
1214 -1226 0
-45 78 -1215 0
1215 -1226 0
-46 79 -1216 0
1216 -1226 0
-47 80 -1217 0
1217 -1226 0
-48 81 -1218 0
1218 -1226 0
-49 82 -1219 0
1219 -1226 0
-50 83 -1220 0
1220 -1226 0
-51 84 -1221 0
1221 -1226 0
-52 85 -1222 0
1222 -1226 0
-53 86 -1223 0
1223 -1226 0
-54 87 -1224 0
1224 -1226 0
-55 88 -1225 0
1225 -1226 0
1226 -1243 0
-74 41 -1227 0
1227 -1242 0
-75 42 -1228 0
1228 -1242 0
-76 43 -1229 0
1229 -1242 0
-77 44 -1230 0
1230 -1242 0
-78 45 -1231 0
1231 -1242 0
-79 46 -1232 0
1232 -1242 0
-80 47 -1233 0
1233 -1242 0
-81 48 -1234 0
1234 -1242 0
-82 49 -1235 0
1235 -1242 0
-83 50 -1236 0
1236 -1242 0
-84 51 -1237 0
1237 -1242 0
-85 52 -1238 0
1238 -1242 0
-86 53 -1239 0
1239 -1242 0
-87 54 -1240 0
1240 -1242 0
-88 55 -1241 0
1241 -1242 0
1242 -1243 0
1243 -1244 0
3 -1278 0
-72 -1260 0
-57 74 -1245 0
1245 -1260 0
-58 75 -1246 0
1246 -1260 0
-59 76 -1247 0
1247 -1260 0
-60 77 -1248 0
1248 -1260 0
-61 78 -1249 0
1249 -1260 0
-62 79 -1250 0
1250 -1260 0
-63 80 -1251 0
1251 -1260 0
-64 81 -1252 0
1252 -1260 0
-65 82 -1253 0
1253 -1260 0
-66 83 -1254 0
1254 -1260 0
-67 84 -1255 0
1255 -1260 0
-68 85 -1256 0
1256 -1260 0
-69 86 -1257 0
1257 -1260 0
-70 87 -1258 0
1258 -1260 0
-71 88 -1259 0
1259 -1260 0
1260 -1277 0
-74 57 -1261 0
1261 -1276 0
-75 58 -1262 0
1262 -1276 0
-76 59 -1263 0
1263 -1276 0
-77 60 -1264 0
1264 -1276 0
-78 61 -1265 0
1265 -1276 0
-79 62 -1266 0
1266 -1276 0
-80 63 -1267 0
1267 -1276 0
-81 64 -1268 0
1268 -1276 0
-82 65 -1269 0
1269 -1276 0
-83 66 -1270 0
1270 -1276 0
-84 67 -1271 0
1271 -1276 0
-85 68 -1272 0
1272 -1276 0
-86 69 -1273 0
1273 -1276 0
-87 70 -1274 0
1274 -1276 0
-88 71 -1275 0
1275 -1276 0
1276 -1277 0
1277 -1278 0
4 -1312 0
-88 -1294 0
-73 74 -1279 0
1279 -1294 0
-74 75 -1280 0
1280 -1294 0
-75 76 -1281 0
1281 -1294 0
-76 77 -1282 0
1282 -1294 0
-77 78 -1283 0
1283 -1294 0
-78 79 -1284 0
1284 -1294 0
-79 80 -1285 0
1285 -1294 0
-80 81 -1286 0
1286 -1294 0
-81 82 -1287 0
1287 -1294 0
-82 83 -1288 0
1288 -1294 0
-83 84 -1289 0
1289 -1294 0
-84 85 -1290 0
1290 -1294 0
-85 86 -1291 0
1291 -1294 0
-86 87 -1292 0
1292 -1294 0
-87 88 -1293 0
1293 -1294 0
1294 -1311 0
-74 73 -1295 0
1295 -1310 0
-75 74 -1296 0
1296 -1310 0
-76 75 -1297 0
1297 -1310 0
-77 76 -1298 0
1298 -1310 0
-78 77 -1299 0
1299 -1310 0
-79 78 -1300 0
1300 -1310 0
-80 79 -1301 0
1301 -1310 0
-81 80 -1302 0
1302 -1310 0
-82 81 -1303 0
1303 -1310 0
-83 82 -1304 0
1304 -1310 0
-84 83 -1305 0
1305 -1310 0
-85 84 -1306 0
1306 -1310 0
-86 85 -1307 0
1307 -1310 0
-87 86 -1308 0
1308 -1310 0
-88 87 -1309 0
1309 -1310 0
1310 -1311 0
1311 -1312 0
1210 1244 1278 1312 -1313 0
1176 1313 -1314 0
-4 1314 -1315 0
1315 -1316 0
1316 -1317 0
-1 2 -1318 0
1318 -1396 0
-1 -2 1319 0
1 2 1319 0
-2 2 1319 0
-5 6 -1320 0
-1319 1320 -1321 0
1321 -1396 0
-5 -6 1322 0
5 6 1322 0
-6 6 1322 0
-1319 -1322 1323 0
-121 123 -1324 0
-1323 1324 -1325 0
1325 -1396 0
-121 -123 1326 0
121 123 1326 0
-123 123 1326 0
-1323 -1326 1327 0
-122 124 -1328 0
-1327 1328 -1329 0
1329 -1396 0
-122 -124 1330 0
122 124 1330 0
-124 124 1330 0
-1327 -1330 1331 0
-25 41 -1332 0
-1331 1332 -1333 0
1333 -1396 0
-25 -41 1334 0
25 41 1334 0
-41 41 1334 0
-1331 -1334 1335 0
-26 42 -1336 0
-1335 1336 -1337 0
1337 -1396 0
-26 -42 1338 0
26 42 1338 0
-42 42 1338 0
-1335 -1338 1339 0
-27 43 -1340 0
-1339 1340 -1341 0
1341 -1396 0
-27 -43 1342 0
27 43 1342 0
-43 43 1342 0
-1339 -1342 1343 0
-28 44 -1344 0
-1343 1344 -1345 0
1345 -1396 0
-28 -44 1346 0
28 44 1346 0
-44 44 1346 0
-1343 -1346 1347 0
-29 45 -1348 0
-1347 1348 -1349 0
1349 -1396 0
-29 -45 1350 0
29 45 1350 0
-45 45 1350 0
-1347 -1350 1351 0
-30 46 -1352 0
-1351 1352 -1353 0
1353 -1396 0
-30 -46 1354 0
30 46 1354 0
-46 46 1354 0
-1351 -1354 1355 0
-31 47 -1356 0
-1355 1356 -1357 0
1357 -1396 0
-31 -47 1358 0
31 47 1358 0
-47 47 1358 0
-1355 -1358 1359 0
-32 48 -1360 0
-1359 1360 -1361 0
1361 -1396 0
-32 -48 1362 0
32 48 1362 0
-48 48 1362 0
-1359 -1362 1363 0
-33 49 -1364 0
-1363 1364 -1365 0
1365 -1396 0
-33 -49 1366 0
33 49 1366 0
-49 49 1366 0
-1363 -1366 1367 0
-34 50 -1368 0
-1367 1368 -1369 0
1369 -1396 0
-34 -50 1370 0
34 50 1370 0
-50 50 1370 0
-1367 -1370 1371 0
-35 51 -1372 0
-1371 1372 -1373 0
1373 -1396 0
-35 -51 1374 0
35 51 1374 0
-51 51 1374 0
-1371 -1374 1375 0
-36 52 -1376 0
-1375 1376 -1377 0
1377 -1396 0
-36 -52 1378 0
36 52 1378 0
-52 52 1378 0
-1375 -1378 1379 0
-37 53 -1380 0
-1379 1380 -1381 0
1381 -1396 0
-37 -53 1382 0
37 53 1382 0
-53 53 1382 0
-1379 -1382 1383 0
-38 54 -1384 0
-1383 1384 -1385 0
1385 -1396 0
-38 -54 1386 0
38 54 1386 0
-54 54 1386 0
-1383 -1386 1387 0
-39 55 -1388 0
-1387 1388 -1389 0
1389 -1396 0
-39 -55 1390 0
39 55 1390 0
-55 55 1390 0
-1387 -1390 1391 0
-40 56 -1392 0
-1391 1392 -1393 0
1393 -1396 0
1396 -1555 0
-2 3 -1397 0
1397 -1475 0
-2 -3 1398 0
2 3 1398 0
-3 3 1398 0
-6 7 -1399 0
-1398 1399 -1400 0
1400 -1475 0
-6 -7 1401 0
6 7 1401 0
-7 7 1401 0
-1398 -1401 1402 0
-123 125 -1403 0
-1402 1403 -1404 0
1404 -1475 0
-123 -125 1405 0
123 125 1405 0
-125 125 1405 0
-1402 -1405 1406 0
-124 126 -1407 0
-1406 1407 -1408 0
1408 -1475 0
-124 -126 1409 0
124 126 1409 0
-126 126 1409 0
-1406 -1409 1410 0
-41 57 -1411 0
-1410 1411 -1412 0
1412 -1475 0
-41 -57 1413 0
41 57 1413 0
-57 57 1413 0
-1410 -1413 1414 0
-42 58 -1415 0
-1414 1415 -1416 0
1416 -1475 0
-42 -58 1417 0
42 58 1417 0
-58 58 1417 0
-1414 -1417 1418 0
-43 59 -1419 0
-1418 1419 -1420 0
1420 -1475 0
-43 -59 1421 0
43 59 1421 0
-59 59 1421 0
-1418 -1421 1422 0
-44 60 -1423 0
-1422 1423 -1424 0
1424 -1475 0
-44 -60 1425 0
44 60 1425 0
-60 60 1425 0
-1422 -1425 1426 0
-45 61 -1427 0
-1426 1427 -1428 0
1428 -1475 0
-45 -61 1429 0
45 61 1429 0
-61 61 1429 0
-1426 -1429 1430 0
-46 62 -1431 0
-1430 1431 -1432 0
1432 -1475 0
-46 -62 1433 0
46 62 1433 0
-62 62 1433 0
-1430 -1433 1434 0
-47 63 -1435 0
-1434 1435 -1436 0
1436 -1475 0
-47 -63 1437 0
47 63 1437 0
-63 63 1437 0
-1434 -1437 1438 0
-48 64 -1439 0
-1438 1439 -1440 0
1440 -1475 0
-48 -64 1441 0
48 64 1441 0
-64 64 1441 0
-1438 -1441 1442 0
-49 65 -1443 0
-1442 1443 -1444 0
1444 -1475 0
-49 -65 1445 0
49 65 1445 0
-65 65 1445 0
-1442 -1445 1446 0
-50 66 -1447 0
-1446 1447 -1448 0
1448 -1475 0
-50 -66 1449 0
50 66 1449 0
-66 66 1449 0
-1446 -1449 1450 0
-51 67 -1451 0
-1450 1451 -1452 0
1452 -1475 0
-51 -67 1453 0
51 67 1453 0
-67 67 1453 0
-1450 -1453 1454 0
-52 68 -1455 0
-1454 1455 -1456 0
1456 -1475 0
-52 -68 1457 0
52 68 1457 0
-68 68 1457 0
-1454 -1457 1458 0
-53 69 -1459 0
-1458 1459 -1460 0
1460 -1475 0
-53 -69 1461 0
53 69 1461 0
-69 69 1461 0
-1458 -1461 1462 0
-54 70 -1463 0
-1462 1463 -1464 0
1464 -1475 0
-54 -70 1465 0
54 70 1465 0
-70 70 1465 0
-1462 -1465 1466 0
-55 71 -1467 0
-1466 1467 -1468 0
1468 -1475 0
-55 -71 1469 0
55 71 1469 0
-71 71 1469 0
-1466 -1469 1470 0
-56 72 -1471 0
-1470 1471 -1472 0
1472 -1475 0
1475 -1555 0
-3 4 -1476 0
1476 -1554 0
-3 -4 1477 0
3 4 1477 0
-4 4 1477 0
-7 8 -1478 0
-1477 1478 -1479 0
1479 -1554 0
-7 -8 1480 0
7 8 1480 0
-8 8 1480 0
-1477 -1480 1481 0
-125 127 -1482 0
-1481 1482 -1483 0
1483 -1554 0
-125 -127 1484 0
125 127 1484 0
-127 127 1484 0
-1481 -1484 1485 0
-126 128 -1486 0
-1485 1486 -1487 0
1487 -1554 0
-126 -128 1488 0
126 128 1488 0
-128 128 1488 0
-1485 -1488 1489 0
-57 73 -1490 0
-1489 1490 -1491 0
1491 -1554 0
-57 -73 1492 0
57 73 1492 0
-73 73 1492 0
-1489 -1492 1493 0
-58 74 -1494 0
-1493 1494 -1495 0
1495 -1554 0
-58 -74 1496 0
58 74 1496 0
-74 74 1496 0
-1493 -1496 1497 0
-59 75 -1498 0
-1497 1498 -1499 0
1499 -1554 0
-59 -75 1500 0
59 75 1500 0
-75 75 1500 0
-1497 -1500 1501 0
-60 76 -1502 0
-1501 1502 -1503 0
1503 -1554 0
-60 -76 1504 0
60 76 1504 0
-76 76 1504 0
-1501 -1504 1505 0
-61 77 -1506 0
-1505 1506 -1507 0
1507 -1554 0
-61 -77 1508 0
61 77 1508 0
-77 77 1508 0
-1505 -1508 1509 0
-62 78 -1510 0
-1509 1510 -1511 0
1511 -1554 0
-62 -78 1512 0
62 78 1512 0
-78 78 1512 0
-1509 -1512 1513 0
-63 79 -1514 0
-1513 1514 -1515 0
1515 -1554 0
-63 -79 1516 0
63 79 1516 0
-79 79 1516 0
-1513 -1516 1517 0
-64 80 -1518 0
-1517 1518 -1519 0
1519 -1554 0
-64 -80 1520 0
64 80 1520 0
-80 80 1520 0
-1517 -1520 1521 0
-65 81 -1522 0
-1521 1522 -1523 0
1523 -1554 0
-65 -81 1524 0
65 81 1524 0
-81 81 1524 0
-1521 -1524 1525 0
-66 82 -1526 0
-1525 1526 -1527 0
1527 -1554 0
-66 -82 1528 0
66 82 1528 0
-82 82 1528 0
-1525 -1528 1529 0
-67 83 -1530 0
-1529 1530 -1531 0
1531 -1554 0
-67 -83 1532 0
67 83 1532 0
-83 83 1532 0
-1529 -1532 1533 0
-68 84 -1534 0
-1533 1534 -1535 0
1535 -1554 0
-68 -84 1536 0
68 84 1536 0
-84 84 1536 0
-1533 -1536 1537 0
-69 85 -1538 0
-1537 1538 -1539 0
1539 -1554 0
-69 -85 1540 0
69 85 1540 0
-85 85 1540 0
-1537 -1540 1541 0
-70 86 -1542 0
-1541 1542 -1543 0
1543 -1554 0
-70 -86 1544 0
70 86 1544 0
-86 86 1544 0
-1541 -1544 1545 0
-71 87 -1546 0
-1545 1546 -1547 0
1547 -1554 0
-71 -87 1548 0
71 87 1548 0
-87 87 1548 0
-1545 -1548 1549 0
-72 88 -1550 0
-1549 1550 -1551 0
1551 -1554 0
1554 -1555 0
1317 0
1555 0
c ind 1 2 3 4 5 6 7 8 9 10 11 12 13 14 15 16 17 18 19 20 21 22 23 24 25 26 27 28 29 30 31 32 33 34 35 36 37 38 39 40 41 42 43 44 45 46 47 48 49 50 51 52 53 54 55 56 57 58 59 60 61 62 63 64 65 66 67 68 69 70 71 72 73 74 75 76 77 78 79 80 81 82 83 84 85 86 87 88 89 90 91 92 93 94 95 96 97 98 99 100 101 102 103 104 105 106 107 108 109 110 111 112 113 114 115 116 117 118 119 120 121 122 123 124 125 126 127 128 0
