p cnf 394 937               
-6 -5 -25 0
25 -31 0
-5 26 0
-6 26 0
-26 -7 -27 0
27 -31 0
-7 28 0
-26 28 0
-28 -8 -29 0
29 -31 0
31 -37 0
-5 1 -32 0
32 -36 0
-6 2 -33 0
33 -36 0
-7 3 -34 0
34 -36 0
-8 4 -35 0
35 -36 0
36 -37 0
37 -299 0
-10 -9 -38 0
38 -44 0
-9 39 0
-10 39 0
-39 -11 -40 0
40 -44 0
-11 41 0
-39 41 0
-41 -12 -42 0
42 -44 0
44 -50 0
-9 1 -45 0
45 -49 0
-10 2 -46 0
46 -49 0
-11 3 -47 0
47 -49 0
-12 4 -48 0
48 -49 0
49 -50 0
-1 50 -51 0
51 -94 0
-14 -13 -52 0
52 -58 0
-13 53 0
-14 53 0
-53 -15 -54 0
54 -58 0
-15 55 0
-53 55 0
-55 -16 -56 0
56 -58 0
58 -64 0
-13 1 -59 0
59 -63 0
-14 2 -60 0
60 -63 0
-15 3 -61 0
61 -63 0
-16 4 -62 0
62 -63 0
63 -64 0
-2 64 -65 0
65 -94 0
-18 -17 -66 0
66 -72 0
-17 67 0
-18 67 0
-67 -19 -68 0
68 -72 0
-19 69 0
-67 69 0
-69 -20 -70 0
70 -72 0
72 -78 0
-17 1 -73 0
73 -77 0
-18 2 -74 0
74 -77 0
-19 3 -75 0
75 -77 0
-20 4 -76 0
76 -77 0
77 -78 0
-3 78 -79 0
79 -94 0
-22 -21 -80 0
80 -86 0
-21 81 0
-22 81 0
-81 -23 -82 0
82 -86 0
-23 83 0
-81 83 0
-83 -24 -84 0
84 -86 0
86 -92 0
-21 1 -87 0
87 -91 0
-22 2 -88 0
88 -91 0
-23 3 -89 0
89 -91 0
-24 4 -90 0
90 -91 0
91 -92 0
-4 92 -93 0
93 -94 0
94 -299 0
-12 43 0
-41 43 0
-43 1 -95 0
95 -99 0
-16 57 0
-55 57 0
-57 2 -96 0
96 -99 0
-20 71 0
-69 71 0
-71 3 -97 0
97 -99 0
-24 85 0
-83 85 0
-85 4 -98 0
98 -99 0
99 -299 0
5 -268 0
-1 264 0
-9 154 0
10 -103 0
13 -103 0
-10 -13 103 0
-103 154 0
11 -107 0
17 -107 0
-11 -17 107 0
-107 154 0
12 -111 0
21 -111 0
-12 -21 111 0
-111 154 0
9 103 107 111 -154 0
-154 236 0
-10 170 0
9 -100 0
10 -100 0
-9 -10 100 0
-100 155 0
10 -104 0
14 -104 0
-10 -14 104 0
-104 155 0
11 -108 0
18 -108 0
-11 -18 108 0
-108 155 0
12 -112 0
22 -112 0
-12 -22 112 0
-112 155 0
100 104 108 112 -155 0
-155 170 0
10 155 -170 0
170 -185 0
-13 173 0
9 -115 0
13 -115 0
-9 -13 115 0
-115 158 0
13 -118 0
14 -118 0
-13 -14 118 0
-118 158 0
15 -121 0
17 -121 0
-15 -17 121 0
-121 158 0
16 -125 0
21 -125 0
-16 -21 125 0
-125 158 0
115 118 121 125 -158 0
-158 173 0
13 158 -173 0
173 -185 0
-170 -173 185 0
-185 236 0
-11 171 0
9 -101 0
11 -101 0
-9 -11 101 0
-101 156 0
10 -105 0
15 -105 0
-10 -15 105 0
-105 156 0
11 -109 0
19 -109 0
-11 -19 109 0
-109 156 0
12 -113 0
23 -113 0
-12 -23 113 0
-113 156 0
101 105 109 113 -156 0
-156 171 0
11 156 -171 0
171 -189 0
-17 176 0
9 -129 0
17 -129 0
-9 -17 129 0
-129 162 0
13 -132 0
18 -132 0
-13 -18 132 0
-132 162 0
17 -135 0
19 -135 0
-17 -19 135 0
-135 162 0
20 -138 0
21 -138 0
-20 -21 138 0
-138 162 0
129 132 135 138 -162 0
-162 176 0
17 162 -176 0
176 -189 0
-171 -176 189 0
-189 236 0
-12 172 0
9 -102 0
12 -102 0
-9 -12 102 0
-102 157 0
10 -106 0
16 -106 0
-10 -16 106 0
-106 157 0
11 -110 0
20 -110 0
-11 -20 110 0
-110 157 0
12 -114 0
24 -114 0
-12 -24 114 0
-114 157 0
102 106 110 114 -157 0
-157 172 0
12 157 -172 0
172 -193 0
-21 179 0
9 -142 0
21 -142 0
-9 -21 142 0
-142 166 0
13 -145 0
22 -145 0
-13 -22 145 0
-145 166 0
17 -148 0
23 -148 0
-17 -23 148 0
-148 166 0
21 -151 0
24 -151 0
-21 -24 151 0
-151 166 0
142 145 148 151 -166 0
-166 179 0
21 166 -179 0
179 -193 0
-172 -179 193 0
-193 236 0
154 185 189 193 -236 0
-236 264 0
1 236 -264 0
264 -268 0
-5 -264 268 0
-268 284 0
6 -272 0
-173 255 0
154 -197 0
173 -197 0
-154 -173 197 0
-197 240 0
-14 159 0
-103 159 0
15 -122 0
18 -122 0
-15 -18 122 0
-122 159 0
16 -126 0
22 -126 0
-16 -22 126 0
-126 159 0
14 103 122 126 -159 0
159 -200 0
173 -200 0
-159 -173 200 0
-200 240 0
-15 174 0
11 -116 0
13 -116 0
-11 -13 116 0
-116 160 0
14 -119 0
15 -119 0
-14 -15 119 0
-119 160 0
15 -123 0
19 -123 0
-15 -19 123 0
-123 160 0
16 -127 0
23 -127 0
-16 -23 127 0
-127 160 0
116 119 123 127 -160 0
-160 174 0
15 160 -174 0
174 -203 0
176 -203 0
-174 -176 203 0
-203 240 0
-16 175 0
12 -117 0
13 -117 0
-12 -13 117 0
-117 161 0
14 -120 0
16 -120 0
-14 -16 120 0
-120 161 0
15 -124 0
20 -124 0
-15 -20 124 0
-124 161 0
16 -128 0
24 -128 0
-16 -24 128 0
-128 161 0
117 120 124 128 -161 0
-161 175 0
16 161 -175 0
175 -207 0
179 -207 0
-175 -179 207 0
-207 240 0
197 200 203 207 -240 0
-240 255 0
173 240 -255 0
255 -272 0
-6 -255 272 0
-272 284 0
7 -276 0
-176 258 0
154 -211 0
176 -211 0
-154 -176 211 0
-211 244 0
173 -214 0
-18 177 0
10 -130 0
17 -130 0
-10 -17 130 0
-130 163 0
14 -133 0
18 -133 0
-14 -18 133 0
-133 163 0
18 -136 0
19 -136 0
-18 -19 136 0
-136 163 0
20 -139 0
22 -139 0
-20 -22 139 0
-139 163 0
130 133 136 139 -163 0
-163 177 0
18 163 -177 0
177 -214 0
-173 -177 214 0
-214 244 0
-19 164 0
-107 164 0
-122 164 0
20 -140 0
23 -140 0
-20 -23 140 0
-140 164 0
19 107 122 140 -164 0
164 -217 0
176 -217 0
-164 -176 217 0
-217 244 0
-20 178 0
12 -131 0
17 -131 0
-12 -17 131 0
-131 165 0
16 -134 0
18 -134 0
-16 -18 134 0
-134 165 0
19 -137 0
20 -137 0
-19 -20 137 0
-137 165 0
20 -141 0
24 -141 0
-20 -24 141 0
-141 165 0
131 134 137 141 -165 0
-165 178 0
20 165 -178 0
178 -220 0
179 -220 0
-178 -179 220 0
-220 244 0
211 214 217 220 -244 0
-244 258 0
176 244 -258 0
258 -276 0
-7 -258 276 0
-276 284 0
8 -280 0
-179 261 0
154 -224 0
179 -224 0
-154 -179 224 0
-224 248 0
173 -227 0
-22 180 0
10 -143 0
21 -143 0
-10 -21 143 0
-143 167 0
14 -146 0
22 -146 0
-14 -22 146 0
-146 167 0
18 -149 0
23 -149 0
-18 -23 149 0
-149 167 0
22 -152 0
24 -152 0
-22 -24 152 0
-152 167 0
143 146 149 152 -167 0
-167 180 0
22 167 -180 0
180 -227 0
-173 -180 227 0
-227 248 0
176 -230 0
-23 181 0
11 -144 0
21 -144 0
-11 -21 144 0
-144 168 0
15 -147 0
22 -147 0
-15 -22 147 0
-147 168 0
19 -150 0
23 -150 0
-19 -23 150 0
-150 168 0
23 -153 0
24 -153 0
-23 -24 153 0
-153 168 0
144 147 150 153 -168 0
-168 181 0
23 168 -181 0
181 -230 0
-176 -181 230 0
-230 248 0
-24 169 0
-111 169 0
-126 169 0
-140 169 0
24 111 126 140 -169 0
169 -233 0
179 -233 0
-169 -179 233 0
-233 248 0
224 227 230 233 -248 0
-248 261 0
179 248 -261 0
261 -280 0
-8 -261 280 0
-280 284 0
268 272 276 280 -284 0
-284 1 -288 0
288 -292 0
5 -269 0
-170 252 0
154 -182 0
170 -182 0
-154 -170 182 0
-182 237 0
159 -186 0
170 -186 0
-159 -170 186 0
-186 237 0
171 -190 0
177 -190 0
-171 -177 190 0
-190 237 0
172 -194 0
180 -194 0
-172 -180 194 0
-194 237 0
182 186 190 194 -237 0
-237 252 0
170 237 -252 0
252 -269 0
-5 -252 269 0
-269 285 0
6 -273 0
-2 265 0
-159 241 0
-185 241 0
174 -204 0
177 -204 0
-174 -177 204 0
-204 241 0
175 -208 0
180 -208 0
-175 -180 208 0
-208 241 0
159 185 204 208 -241 0
-241 265 0
2 241 -265 0
265 -273 0
-6 -265 273 0
-273 285 0
7 -277 0
-177 259 0
170 -212 0
176 -212 0
-170 -176 212 0
-212 245 0
159 -215 0
177 -215 0
-159 -177 215 0
-215 245 0
164 -218 0
177 -218 0
-164 -177 218 0
-218 245 0
178 -221 0
180 -221 0
-178 -180 221 0
-221 245 0
212 215 218 221 -245 0
-245 259 0
177 245 -259 0
259 -277 0
-7 -259 277 0
-277 285 0
8 -281 0
-180 262 0
170 -225 0
179 -225 0
-170 -179 225 0
-225 249 0
159 -228 0
180 -228 0
-159 -180 228 0
-228 249 0
177 -231 0
181 -231 0
-177 -181 231 0
-231 249 0
169 -234 0
180 -234 0
-169 -180 234 0
-234 249 0
225 228 231 234 -249 0
-249 262 0
180 249 -262 0
262 -281 0
-8 -262 281 0
-281 285 0
269 273 277 281 -285 0
-285 2 -289 0
289 -292 0
5 -270 0
-171 253 0
154 -183 0
171 -183 0
-154 -171 183 0
-183 238 0
170 -187 0
174 -187 0
-170 -174 187 0
-187 238 0
164 -191 0
171 -191 0
-164 -171 191 0
-191 238 0
172 -195 0
181 -195 0
-172 -181 195 0
-195 238 0
183 187 191 195 -238 0
-238 253 0
171 238 -253 0
253 -270 0
-5 -253 270 0
-270 286 0
6 -274 0
-174 256 0
171 -198 0
173 -198 0
-171 -173 198 0
-198 242 0
159 -201 0
174 -201 0
-159 -174 201 0
-201 242 0
164 -205 0
174 -205 0
-164 -174 205 0
-205 242 0
175 -209 0
181 -209 0
-175 -181 209 0
-209 242 0
198 201 205 209 -242 0
-242 256 0
174 242 -256 0
256 -274 0
-6 -256 274 0
-274 286 0
7 -278 0
-3 266 0
-164 246 0
-189 246 0
-204 246 0
178 -222 0
181 -222 0
-178 -181 222 0
-222 246 0
164 189 204 222 -246 0
-246 266 0
3 246 -266 0
266 -278 0
-7 -266 278 0
-278 286 0
8 -282 0
-181 263 0
171 -226 0
179 -226 0
-171 -179 226 0
-226 250 0
174 -229 0
180 -229 0
-174 -180 229 0
-229 250 0
164 -232 0
181 -232 0
-164 -181 232 0
-232 250 0
169 -235 0
181 -235 0
-169 -181 235 0
-235 250 0
226 229 232 235 -250 0
-250 263 0
181 250 -263 0
263 -282 0
-8 -263 282 0
-282 286 0
270 274 278 282 -286 0
-286 3 -290 0
290 -292 0
5 -271 0
-172 254 0
154 -184 0
172 -184 0
-154 -172 184 0
-184 239 0
170 -188 0
175 -188 0
-170 -175 188 0
-188 239 0
171 -192 0
178 -192 0
-171 -178 192 0
-192 239 0
169 -196 0
172 -196 0
-169 -172 196 0
-196 239 0
184 188 192 196 -239 0
-239 254 0
172 239 -254 0
254 -271 0
-5 -254 271 0
-271 287 0
6 -275 0
-175 257 0
172 -199 0
173 -199 0
-172 -173 199 0
-199 243 0
159 -202 0
175 -202 0
-159 -175 202 0
-202 243 0
174 -206 0
178 -206 0
-174 -178 206 0
-206 243 0
169 -210 0
175 -210 0
-169 -175 210 0
-210 243 0
199 202 206 210 -243 0
-243 257 0
175 243 -257 0
257 -275 0
-6 -257 275 0
-275 287 0
7 -279 0
-178 260 0
172 -213 0
176 -213 0
-172 -176 213 0
-213 247 0
175 -216 0
177 -216 0
-175 -177 216 0
-216 247 0
164 -219 0
178 -219 0
-164 -178 219 0
-219 247 0
169 -223 0
178 -223 0
-169 -178 223 0
-223 247 0
213 216 219 223 -247 0
-247 260 0
178 247 -260 0
260 -279 0
-7 -260 279 0
-279 287 0
8 -283 0
-4 267 0
-169 251 0
-193 251 0
-208 251 0
-222 251 0
169 193 208 222 -251 0
-251 267 0
4 251 -267 0
267 -283 0
-8 -267 283 0
-283 287 0
271 275 279 283 -287 0
-287 4 -291 0
291 -292 0
292 -298 0
-1 284 -293 0
293 -297 0
-2 285 -294 0
294 -297 0
-3 286 -295 0
295 -297 0
-4 287 -296 0
296 -297 0
297 -298 0
298 -299 0
-1 2 -300 0
300 -330 0
-1 -2 301 0
1 2 301 0
-2 2 301 0
-5 6 -302 0
-301 302 -303 0
303 -330 0
-5 -6 304 0
5 6 304 0
-6 6 304 0
-301 -304 305 0
-9 14 -306 0
-305 306 -307 0
307 -330 0
-9 -14 308 0
9 14 308 0
-14 14 308 0
-305 -308 309 0
-10 13 -310 0
-309 310 -311 0
311 -330 0
-10 -13 312 0
10 13 312 0
-13 13 312 0
-309 -312 313 0
-11 15 -314 0
-313 314 -315 0
315 -330 0
-11 -15 316 0
11 15 316 0
-15 15 316 0
-313 -316 317 0
-12 16 -318 0
-317 318 -319 0
319 -330 0
-12 -16 320 0
12 16 320 0
-16 16 320 0
-317 -320 321 0
-17 18 -322 0
-321 322 -323 0
323 -330 0
-17 -18 324 0
17 18 324 0
-18 18 324 0
-321 -324 325 0
-21 22 -326 0
-325 326 -327 0
327 -330 0
330 -393 0
-2 3 -331 0
331 -361 0
-2 -3 332 0
2 3 332 0
-3 3 332 0
-6 7 -333 0
-332 333 -334 0
334 -361 0
-6 -7 335 0
6 7 335 0
-7 7 335 0
-332 -335 336 0
-10 11 -337 0
-336 337 -338 0
338 -361 0
-10 -11 339 0
10 11 339 0
-11 11 339 0
-336 -339 340 0
-13 17 -341 0
-340 341 -342 0
342 -361 0
-13 -17 343 0
13 17 343 0
-17 17 343 0
-340 -343 344 0
-14 19 -345 0
-344 345 -346 0
346 -361 0
-14 -19 347 0
14 19 347 0
-19 19 347 0
-344 -347 348 0
-15 18 -349 0
-348 349 -350 0
350 -361 0
-15 -18 351 0
15 18 351 0
-18 18 351 0
-348 -351 352 0
-16 20 -353 0
-352 353 -354 0
354 -361 0
-16 -20 355 0
16 20 355 0
-20 20 355 0
-352 -355 356 0
-22 23 -357 0
-356 357 -358 0
358 -361 0
361 -393 0
-3 4 -362 0
362 -392 0
-3 -4 363 0
3 4 363 0
-4 4 363 0
-7 8 -364 0
-363 364 -365 0
365 -392 0
-7 -8 366 0
7 8 366 0
-8 8 366 0
-363 -366 367 0
-11 12 -368 0
-367 368 -369 0
369 -392 0
-11 -12 370 0
11 12 370 0
-12 12 370 0
-367 -370 371 0
-15 16 -372 0
-371 372 -373 0
373 -392 0
-15 -16 374 0
15 16 374 0
-16 16 374 0
-371 -374 375 0
-17 21 -376 0
-375 376 -377 0
377 -392 0
-17 -21 378 0
17 21 378 0
-21 21 378 0
-375 -378 379 0
-18 22 -380 0
-379 380 -381 0
381 -392 0
-18 -22 382 0
18 22 382 0
-22 22 382 0
-379 -382 383 0
-19 24 -384 0
-383 384 -385 0
385 -392 0
-19 -24 386 0
19 24 386 0
-24 24 386 0
-383 -386 387 0
-20 23 -388 0
-387 388 -389 0
389 -392 0
392 -393 0
299 0
393 0
c ind 1 2 3 4 5 6 7 8 9 10 11 12 13 14 15 16 17 18 19 20 21 22 23 24 0
